LAMMPS data file. CGCMM style. atom_style full generated by VMD/TopoTools v1.7 on Thu Apr 08 14:23:53 CEST 2021
 1008 atoms
 1467 bonds
 2846 angles
 5541 dihedrals
 1 atom types
 1 bond types
 1 angle types
 1 dihedral types
 -3.637310 98.207279  xlo xhi
 -1.400003 99.400000  ylo yhi
 -1.500000 1.500000  zlo zhi

 Pair Coeffs

 1  0.82 3.46    # LJ

 Bond Coeffs

 1  196.38 1.55 2.8    # morse

 Angle Coeffs

 1  409.40 120   # harmonic

 Dihedral Coeffs

 1  0.0 8.30 0.0 0.0 # opls

 Masses

 1 48.04280 # CA

 Atoms # full

1 1 1 0.000000 0.000000 0.000000 0.000000 # CA GRA
2 2 1 0.000000 -2.424871 1.400000 0.000000 # CA GRA
3 3 1 0.000000 -2.424871 4.200000 0.000000 # CA GRA
4 4 1 0.000000 0.000000 5.600000 0.000000 # CA GRA
5 5 1 0.000000 4.849742 0.000000 0.000000 # CA GRA
6 6 1 0.000000 2.424871 1.400000 0.000000 # CA GRA
7 7 1 0.000000 2.424871 4.200000 0.000000 # CA GRA
8 8 1 0.000000 4.849742 5.600000 0.000000 # CA GRA
9 9 1 0.000000 9.699485 0.000000 0.000000 # CA GRA
10 10 1 0.000000 7.274613 1.400000 0.000000 # CA GRA
11 11 1 0.000000 7.274613 4.200000 0.000000 # CA GRA
12 12 1 0.000000 9.699485 5.600000 0.000000 # CA GRA
13 13 1 0.000000 14.549227 0.000000 0.000000 # CA GRA
14 14 1 0.000000 12.124355 1.400000 0.000000 # CA GRA
15 15 1 0.000000 12.124355 4.200000 0.000000 # CA GRA
16 16 1 0.000000 14.549227 5.600000 0.000000 # CA GRA
17 17 1 0.000000 19.398970 0.000000 0.000000 # CA GRA
18 18 1 0.000000 16.974098 1.400000 0.000000 # CA GRA
19 19 1 0.000000 16.974098 4.200000 0.000000 # CA GRA
20 20 1 0.000000 19.398970 5.600000 0.000000 # CA GRA
21 21 1 0.000000 24.248711 0.000000 0.000000 # CA GRA
22 22 1 0.000000 21.823841 1.400000 0.000000 # CA GRA
23 23 1 0.000000 21.823841 4.200000 0.000000 # CA GRA
24 24 1 0.000000 24.248711 5.600000 0.000000 # CA GRA
25 25 1 0.000000 29.098454 0.000000 0.000000 # CA GRA
26 26 1 0.000000 26.673582 1.400000 0.000000 # CA GRA
27 27 1 0.000000 26.673582 4.200000 0.000000 # CA GRA
28 28 1 0.000000 29.098454 5.600000 0.000000 # CA GRA
29 29 1 0.000000 33.948196 0.000000 0.000000 # CA GRA
30 30 1 0.000000 31.523325 1.400000 0.000000 # CA GRA
31 31 1 0.000000 31.523325 4.200000 0.000000 # CA GRA
32 32 1 0.000000 33.948196 5.600000 0.000000 # CA GRA
33 33 1 0.000000 38.797939 0.000000 0.000000 # CA GRA
34 34 1 0.000000 36.373066 1.400000 0.000000 # CA GRA
35 35 1 0.000000 36.373066 4.200000 0.000000 # CA GRA
36 36 1 0.000000 38.797939 5.600000 0.000000 # CA GRA
37 37 1 0.000000 43.647682 0.000000 0.000000 # CA GRA
38 38 1 0.000000 41.222809 1.400000 0.000000 # CA GRA
39 39 1 0.000000 41.222809 4.200000 0.000000 # CA GRA
40 40 1 0.000000 43.647682 5.600000 0.000000 # CA GRA
41 41 1 0.000000 48.497421 0.000000 0.000000 # CA GRA
42 42 1 0.000000 46.072552 1.400000 0.000000 # CA GRA
43 43 1 0.000000 46.072552 4.200000 0.000000 # CA GRA
44 44 1 0.000000 48.497421 5.600000 0.000000 # CA GRA
45 45 1 0.000000 53.347164 0.000000 0.000000 # CA GRA
46 46 1 0.000000 50.922295 1.400000 0.000000 # CA GRA
47 47 1 0.000000 50.922295 4.200000 0.000000 # CA GRA
48 48 1 0.000000 53.347164 5.600000 0.000000 # CA GRA
49 49 1 0.000000 58.196907 0.000000 0.000000 # CA GRA
50 50 1 0.000000 55.772038 1.400000 0.000000 # CA GRA
51 51 1 0.000000 55.772038 4.200000 0.000000 # CA GRA
52 52 1 0.000000 58.196907 5.600000 0.000000 # CA GRA
53 53 1 0.000000 63.046650 0.000000 0.000000 # CA GRA
54 54 1 0.000000 60.621777 1.400000 0.000000 # CA GRA
55 55 1 0.000000 60.621777 4.200000 0.000000 # CA GRA
56 56 1 0.000000 63.046650 5.600000 0.000000 # CA GRA
57 57 1 0.000000 67.896393 0.000000 0.000000 # CA GRA
58 58 1 0.000000 65.471519 1.400000 0.000000 # CA GRA
59 59 1 0.000000 65.471519 4.200000 0.000000 # CA GRA
60 60 1 0.000000 67.896393 5.600000 0.000000 # CA GRA
61 61 1 0.000000 72.746132 0.000000 0.000000 # CA GRA
62 62 1 0.000000 70.321266 1.400000 0.000000 # CA GRA
63 63 1 0.000000 70.321266 4.200000 0.000000 # CA GRA
64 64 1 0.000000 72.746132 5.600000 0.000000 # CA GRA
65 65 1 0.000000 77.595879 0.000000 0.000000 # CA GRA
66 66 1 0.000000 75.171005 1.400000 0.000000 # CA GRA
67 67 1 0.000000 75.171005 4.200000 0.000000 # CA GRA
68 68 1 0.000000 77.595879 5.600000 0.000000 # CA GRA
69 69 1 0.000000 82.445618 0.000000 0.000000 # CA GRA
70 70 1 0.000000 80.020744 1.400000 0.000000 # CA GRA
71 71 1 0.000000 80.020744 4.200000 0.000000 # CA GRA
72 72 1 0.000000 82.445618 5.600000 0.000000 # CA GRA
73 73 1 0.000000 87.295364 0.000000 0.000000 # CA GRA
74 74 1 0.000000 84.870491 1.400000 0.000000 # CA GRA
75 75 1 0.000000 84.870491 4.200000 0.000000 # CA GRA
76 76 1 0.000000 87.295364 5.600000 0.000000 # CA GRA
77 77 1 0.000000 92.145103 0.000000 0.000000 # CA GRA
78 78 1 0.000000 89.720230 1.400000 0.000000 # CA GRA
79 79 1 0.000000 89.720230 4.200000 0.000000 # CA GRA
80 80 1 0.000000 92.145103 5.600000 0.000000 # CA GRA
81 81 1 0.000000 96.994843 0.000000 0.000000 # CA GRA
82 82 1 0.000000 94.569977 1.400000 0.000000 # CA GRA
83 83 1 0.000000 94.569977 4.200000 0.000000 # CA GRA
84 84 1 0.000000 96.994843 5.600000 0.000000 # CA GRA
85 85 1 0.000000 0.000000 8.400000 0.000000 # CA GRA
86 86 1 0.000000 -2.424871 9.800000 0.000000 # CA GRA
87 87 1 0.000000 -2.424871 12.600000 0.000000 # CA GRA
88 88 1 0.000000 0.000000 14.000000 0.000000 # CA GRA
89 89 1 0.000000 4.849742 8.400000 0.000000 # CA GRA
90 90 1 0.000000 2.424871 9.800000 0.000000 # CA GRA
91 91 1 0.000000 2.424871 12.600000 0.000000 # CA GRA
92 92 1 0.000000 4.849742 14.000000 0.000000 # CA GRA
93 93 1 0.000000 9.699485 8.400000 0.000000 # CA GRA
94 94 1 0.000000 7.274613 9.800000 0.000000 # CA GRA
95 95 1 0.000000 7.274613 12.600000 0.000000 # CA GRA
96 96 1 0.000000 9.699485 14.000000 0.000000 # CA GRA
97 97 1 0.000000 14.549227 8.400000 0.000000 # CA GRA
98 98 1 0.000000 12.124355 9.800000 0.000000 # CA GRA
99 99 1 0.000000 12.124355 12.600000 0.000000 # CA GRA
100 100 1 0.000000 14.549227 14.000000 0.000000 # CA GRA
101 101 1 0.000000 19.398970 8.400000 0.000000 # CA GRA
102 102 1 0.000000 16.974098 9.800000 0.000000 # CA GRA
103 103 1 0.000000 16.974098 12.600000 0.000000 # CA GRA
104 104 1 0.000000 19.398970 14.000000 0.000000 # CA GRA
105 105 1 0.000000 24.248711 8.400000 0.000000 # CA GRA
106 106 1 0.000000 21.823841 9.800000 0.000000 # CA GRA
107 107 1 0.000000 21.823841 12.600000 0.000000 # CA GRA
108 108 1 0.000000 24.248711 14.000000 0.000000 # CA GRA
109 109 1 0.000000 29.098454 8.400000 0.000000 # CA GRA
110 110 1 0.000000 26.673582 9.800000 0.000000 # CA GRA
111 111 1 0.000000 26.673582 12.600000 0.000000 # CA GRA
112 112 1 0.000000 29.098454 14.000000 0.000000 # CA GRA
113 113 1 0.000000 33.948196 8.400000 0.000000 # CA GRA
114 114 1 0.000000 31.523325 9.800000 0.000000 # CA GRA
115 115 1 0.000000 31.523325 12.600000 0.000000 # CA GRA
116 116 1 0.000000 33.948196 14.000000 0.000000 # CA GRA
117 117 1 0.000000 38.797939 8.400000 0.000000 # CA GRA
118 118 1 0.000000 36.373066 9.800000 0.000000 # CA GRA
119 119 1 0.000000 36.373066 12.600000 0.000000 # CA GRA
120 120 1 0.000000 38.797939 14.000000 0.000000 # CA GRA
121 121 1 0.000000 43.647682 8.400000 0.000000 # CA GRA
122 122 1 0.000000 41.222809 9.800000 0.000000 # CA GRA
123 123 1 0.000000 41.222809 12.600000 0.000000 # CA GRA
124 124 1 0.000000 43.647682 14.000000 0.000000 # CA GRA
125 125 1 0.000000 48.497421 8.400000 0.000000 # CA GRA
126 126 1 0.000000 46.072552 9.800000 0.000000 # CA GRA
127 127 1 0.000000 46.072552 12.600000 0.000000 # CA GRA
128 128 1 0.000000 48.497421 14.000000 0.000000 # CA GRA
129 129 1 0.000000 53.347164 8.400000 0.000000 # CA GRA
130 130 1 0.000000 50.922295 9.800000 0.000000 # CA GRA
131 131 1 0.000000 50.922295 12.600000 0.000000 # CA GRA
132 132 1 0.000000 53.347164 14.000000 0.000000 # CA GRA
133 133 1 0.000000 58.196907 8.400000 0.000000 # CA GRA
134 134 1 0.000000 55.772038 9.800000 0.000000 # CA GRA
135 135 1 0.000000 55.772038 12.600000 0.000000 # CA GRA
136 136 1 0.000000 58.196907 14.000000 0.000000 # CA GRA
137 137 1 0.000000 63.046650 8.400000 0.000000 # CA GRA
138 138 1 0.000000 60.621777 9.800000 0.000000 # CA GRA
139 139 1 0.000000 60.621777 12.600000 0.000000 # CA GRA
140 140 1 0.000000 63.046650 14.000000 0.000000 # CA GRA
141 141 1 0.000000 67.896393 8.400000 0.000000 # CA GRA
142 142 1 0.000000 65.471519 9.800000 0.000000 # CA GRA
143 143 1 0.000000 65.471519 12.600000 0.000000 # CA GRA
144 144 1 0.000000 67.896393 14.000000 0.000000 # CA GRA
145 145 1 0.000000 72.746132 8.400000 0.000000 # CA GRA
146 146 1 0.000000 70.321266 9.800000 0.000000 # CA GRA
147 147 1 0.000000 70.321266 12.600000 0.000000 # CA GRA
148 148 1 0.000000 72.746132 14.000000 0.000000 # CA GRA
149 149 1 0.000000 77.595879 8.400000 0.000000 # CA GRA
150 150 1 0.000000 75.171005 9.800000 0.000000 # CA GRA
151 151 1 0.000000 75.171005 12.600000 0.000000 # CA GRA
152 152 1 0.000000 77.595879 14.000000 0.000000 # CA GRA
153 153 1 0.000000 82.445618 8.400000 0.000000 # CA GRA
154 154 1 0.000000 80.020744 9.800000 0.000000 # CA GRA
155 155 1 0.000000 80.020744 12.600000 0.000000 # CA GRA
156 156 1 0.000000 82.445618 14.000000 0.000000 # CA GRA
157 157 1 0.000000 87.295364 8.400000 0.000000 # CA GRA
158 158 1 0.000000 84.870491 9.800000 0.000000 # CA GRA
159 159 1 0.000000 84.870491 12.600000 0.000000 # CA GRA
160 160 1 0.000000 87.295364 14.000000 0.000000 # CA GRA
161 161 1 0.000000 92.145103 8.400000 0.000000 # CA GRA
162 162 1 0.000000 89.720230 9.800000 0.000000 # CA GRA
163 163 1 0.000000 89.720230 12.600000 0.000000 # CA GRA
164 164 1 0.000000 92.145103 14.000000 0.000000 # CA GRA
165 165 1 0.000000 96.994843 8.400000 0.000000 # CA GRA
166 166 1 0.000000 94.569977 9.800000 0.000000 # CA GRA
167 167 1 0.000000 94.569977 12.600000 0.000000 # CA GRA
168 168 1 0.000000 96.994843 14.000000 0.000000 # CA GRA
169 169 1 0.000000 0.000000 16.799999 0.000000 # CA GRA
170 170 1 0.000000 -2.424871 18.200001 0.000000 # CA GRA
171 171 1 0.000000 -2.424871 21.000000 0.000000 # CA GRA
172 172 1 0.000000 0.000000 22.400000 0.000000 # CA GRA
173 173 1 0.000000 4.849742 16.799999 0.000000 # CA GRA
174 174 1 0.000000 2.424871 18.200001 0.000000 # CA GRA
175 175 1 0.000000 2.424871 21.000000 0.000000 # CA GRA
176 176 1 0.000000 4.849742 22.400000 0.000000 # CA GRA
177 177 1 0.000000 9.699485 16.799999 0.000000 # CA GRA
178 178 1 0.000000 7.274613 18.200001 0.000000 # CA GRA
179 179 1 0.000000 7.274613 21.000000 0.000000 # CA GRA
180 180 1 0.000000 9.699485 22.400000 0.000000 # CA GRA
181 181 1 0.000000 14.549227 16.799999 0.000000 # CA GRA
182 182 1 0.000000 12.124355 18.200001 0.000000 # CA GRA
183 183 1 0.000000 12.124355 21.000000 0.000000 # CA GRA
184 184 1 0.000000 14.549227 22.400000 0.000000 # CA GRA
185 185 1 0.000000 19.398970 16.799999 0.000000 # CA GRA
186 186 1 0.000000 16.974098 18.200001 0.000000 # CA GRA
187 187 1 0.000000 16.974098 21.000000 0.000000 # CA GRA
188 188 1 0.000000 19.398970 22.400000 0.000000 # CA GRA
189 189 1 0.000000 24.248711 16.799999 0.000000 # CA GRA
190 190 1 0.000000 21.823841 18.200001 0.000000 # CA GRA
191 191 1 0.000000 21.823841 21.000000 0.000000 # CA GRA
192 192 1 0.000000 24.248711 22.400000 0.000000 # CA GRA
193 193 1 0.000000 29.098454 16.799999 0.000000 # CA GRA
194 194 1 0.000000 26.673582 18.200001 0.000000 # CA GRA
195 195 1 0.000000 26.673582 21.000000 0.000000 # CA GRA
196 196 1 0.000000 29.098454 22.400000 0.000000 # CA GRA
197 197 1 0.000000 33.948196 16.799999 0.000000 # CA GRA
198 198 1 0.000000 31.523325 18.200001 0.000000 # CA GRA
199 199 1 0.000000 31.523325 21.000000 0.000000 # CA GRA
200 200 1 0.000000 33.948196 22.400000 0.000000 # CA GRA
201 201 1 0.000000 38.797939 16.799999 0.000000 # CA GRA
202 202 1 0.000000 36.373066 18.200001 0.000000 # CA GRA
203 203 1 0.000000 36.373066 21.000000 0.000000 # CA GRA
204 204 1 0.000000 38.797939 22.400000 0.000000 # CA GRA
205 205 1 0.000000 43.647682 16.799999 0.000000 # CA GRA
206 206 1 0.000000 41.222809 18.200001 0.000000 # CA GRA
207 207 1 0.000000 41.222809 21.000000 0.000000 # CA GRA
208 208 1 0.000000 43.647682 22.400000 0.000000 # CA GRA
209 209 1 0.000000 48.497421 16.799999 0.000000 # CA GRA
210 210 1 0.000000 46.072552 18.200001 0.000000 # CA GRA
211 211 1 0.000000 46.072552 21.000000 0.000000 # CA GRA
212 212 1 0.000000 48.497421 22.400000 0.000000 # CA GRA
213 213 1 0.000000 53.347164 16.799999 0.000000 # CA GRA
214 214 1 0.000000 50.922295 18.200001 0.000000 # CA GRA
215 215 1 0.000000 50.922295 21.000000 0.000000 # CA GRA
216 216 1 0.000000 53.347164 22.400000 0.000000 # CA GRA
217 217 1 0.000000 58.196907 16.799999 0.000000 # CA GRA
218 218 1 0.000000 55.772038 18.200001 0.000000 # CA GRA
219 219 1 0.000000 55.772038 21.000000 0.000000 # CA GRA
220 220 1 0.000000 58.196907 22.400000 0.000000 # CA GRA
221 221 1 0.000000 63.046650 16.799999 0.000000 # CA GRA
222 222 1 0.000000 60.621777 18.200001 0.000000 # CA GRA
223 223 1 0.000000 60.621777 21.000000 0.000000 # CA GRA
224 224 1 0.000000 63.046650 22.400000 0.000000 # CA GRA
225 225 1 0.000000 67.896393 16.799999 0.000000 # CA GRA
226 226 1 0.000000 65.471519 18.200001 0.000000 # CA GRA
227 227 1 0.000000 65.471519 21.000000 0.000000 # CA GRA
228 228 1 0.000000 67.896393 22.400000 0.000000 # CA GRA
229 229 1 0.000000 72.746132 16.799999 0.000000 # CA GRA
230 230 1 0.000000 70.321266 18.200001 0.000000 # CA GRA
231 231 1 0.000000 70.321266 21.000000 0.000000 # CA GRA
232 232 1 0.000000 72.746132 22.400000 0.000000 # CA GRA
233 233 1 0.000000 77.595879 16.799999 0.000000 # CA GRA
234 234 1 0.000000 75.171005 18.200001 0.000000 # CA GRA
235 235 1 0.000000 75.171005 21.000000 0.000000 # CA GRA
236 236 1 0.000000 77.595879 22.400000 0.000000 # CA GRA
237 237 1 0.000000 82.445618 16.799999 0.000000 # CA GRA
238 238 1 0.000000 80.020744 18.200001 0.000000 # CA GRA
239 239 1 0.000000 80.020744 21.000000 0.000000 # CA GRA
240 240 1 0.000000 82.445618 22.400000 0.000000 # CA GRA
241 241 1 0.000000 87.295364 16.799999 0.000000 # CA GRA
242 242 1 0.000000 84.870491 18.200001 0.000000 # CA GRA
243 243 1 0.000000 84.870491 21.000000 0.000000 # CA GRA
244 244 1 0.000000 87.295364 22.400000 0.000000 # CA GRA
245 245 1 0.000000 92.145103 16.799999 0.000000 # CA GRA
246 246 1 0.000000 89.720230 18.200001 0.000000 # CA GRA
247 247 1 0.000000 89.720230 21.000000 0.000000 # CA GRA
248 248 1 0.000000 92.145103 22.400000 0.000000 # CA GRA
249 249 1 0.000000 96.994843 16.799999 0.000000 # CA GRA
250 250 1 0.000000 94.569977 18.200001 0.000000 # CA GRA
251 251 1 0.000000 94.569977 21.000000 0.000000 # CA GRA
252 252 1 0.000000 96.994843 22.400000 0.000000 # CA GRA
253 253 1 0.000000 0.000000 25.200001 0.000000 # CA GRA
254 254 1 0.000000 -2.424871 26.600000 0.000000 # CA GRA
255 255 1 0.000000 -2.424871 29.400000 0.000000 # CA GRA
256 256 1 0.000000 0.000000 30.799999 0.000000 # CA GRA
257 257 1 0.000000 4.849742 25.200001 0.000000 # CA GRA
258 258 1 0.000000 2.424871 26.600000 0.000000 # CA GRA
259 259 1 0.000000 2.424871 29.400000 0.000000 # CA GRA
260 260 1 0.000000 4.849742 30.799999 0.000000 # CA GRA
261 261 1 0.000000 9.699485 25.200001 0.000000 # CA GRA
262 262 1 0.000000 7.274613 26.600000 0.000000 # CA GRA
263 263 1 0.000000 7.274613 29.400000 0.000000 # CA GRA
264 264 1 0.000000 9.699485 30.799999 0.000000 # CA GRA
265 265 1 0.000000 14.549227 25.200001 0.000000 # CA GRA
266 266 1 0.000000 12.124355 26.600000 0.000000 # CA GRA
267 267 1 0.000000 12.124355 29.400000 0.000000 # CA GRA
268 268 1 0.000000 14.549227 30.799999 0.000000 # CA GRA
269 269 1 0.000000 19.398970 25.200001 0.000000 # CA GRA
270 270 1 0.000000 16.974098 26.600000 0.000000 # CA GRA
271 271 1 0.000000 16.974098 29.400000 0.000000 # CA GRA
272 272 1 0.000000 19.398970 30.799999 0.000000 # CA GRA
273 273 1 0.000000 24.248711 25.200001 0.000000 # CA GRA
274 274 1 0.000000 21.823841 26.600000 0.000000 # CA GRA
275 275 1 0.000000 21.823841 29.400000 0.000000 # CA GRA
276 276 1 0.000000 24.248711 30.799999 0.000000 # CA GRA
277 277 1 0.000000 29.098454 25.200001 0.000000 # CA GRA
278 278 1 0.000000 26.673582 26.600000 0.000000 # CA GRA
279 279 1 0.000000 26.673582 29.400000 0.000000 # CA GRA
280 280 1 0.000000 29.098454 30.799999 0.000000 # CA GRA
281 281 1 0.000000 33.948196 25.200001 0.000000 # CA GRA
282 282 1 0.000000 31.523325 26.600000 0.000000 # CA GRA
283 283 1 0.000000 31.523325 29.400000 0.000000 # CA GRA
284 284 1 0.000000 33.948196 30.799999 0.000000 # CA GRA
285 285 1 0.000000 38.797939 25.200001 0.000000 # CA GRA
286 286 1 0.000000 36.373066 26.600000 0.000000 # CA GRA
287 287 1 0.000000 36.373066 29.400000 0.000000 # CA GRA
288 288 1 0.000000 38.797939 30.799999 0.000000 # CA GRA
289 289 1 0.000000 43.647682 25.200001 0.000000 # CA GRA
290 290 1 0.000000 41.222809 26.600000 0.000000 # CA GRA
291 291 1 0.000000 41.222809 29.400000 0.000000 # CA GRA
292 292 1 0.000000 43.647682 30.799999 0.000000 # CA GRA
293 293 1 0.000000 48.497421 25.200001 0.000000 # CA GRA
294 294 1 0.000000 46.072552 26.600000 0.000000 # CA GRA
295 295 1 0.000000 46.072552 29.400000 0.000000 # CA GRA
296 296 1 0.000000 48.497421 30.799999 0.000000 # CA GRA
297 297 1 0.000000 53.347164 25.200001 0.000000 # CA GRA
298 298 1 0.000000 50.922295 26.600000 0.000000 # CA GRA
299 299 1 0.000000 50.922295 29.400000 0.000000 # CA GRA
300 300 1 0.000000 53.347164 30.799999 0.000000 # CA GRA
301 301 1 0.000000 58.196907 25.200001 0.000000 # CA GRA
302 302 1 0.000000 55.772038 26.600000 0.000000 # CA GRA
303 303 1 0.000000 55.772038 29.400000 0.000000 # CA GRA
304 304 1 0.000000 58.196907 30.799999 0.000000 # CA GRA
305 305 1 0.000000 63.046650 25.200001 0.000000 # CA GRA
306 306 1 0.000000 60.621777 26.600000 0.000000 # CA GRA
307 307 1 0.000000 60.621777 29.400000 0.000000 # CA GRA
308 308 1 0.000000 63.046650 30.799999 0.000000 # CA GRA
309 309 1 0.000000 67.896393 25.200001 0.000000 # CA GRA
310 310 1 0.000000 65.471519 26.600000 0.000000 # CA GRA
311 311 1 0.000000 65.471519 29.400000 0.000000 # CA GRA
312 312 1 0.000000 67.896393 30.799999 0.000000 # CA GRA
313 313 1 0.000000 72.746132 25.200001 0.000000 # CA GRA
314 314 1 0.000000 70.321266 26.600000 0.000000 # CA GRA
315 315 1 0.000000 70.321266 29.400000 0.000000 # CA GRA
316 316 1 0.000000 72.746132 30.799999 0.000000 # CA GRA
317 317 1 0.000000 77.595879 25.200001 0.000000 # CA GRA
318 318 1 0.000000 75.171005 26.600000 0.000000 # CA GRA
319 319 1 0.000000 75.171005 29.400000 0.000000 # CA GRA
320 320 1 0.000000 77.595879 30.799999 0.000000 # CA GRA
321 321 1 0.000000 82.445618 25.200001 0.000000 # CA GRA
322 322 1 0.000000 80.020744 26.600000 0.000000 # CA GRA
323 323 1 0.000000 80.020744 29.400000 0.000000 # CA GRA
324 324 1 0.000000 82.445618 30.799999 0.000000 # CA GRA
325 325 1 0.000000 87.295364 25.200001 0.000000 # CA GRA
326 326 1 0.000000 84.870491 26.600000 0.000000 # CA GRA
327 327 1 0.000000 84.870491 29.400000 0.000000 # CA GRA
328 328 1 0.000000 87.295364 30.799999 0.000000 # CA GRA
329 329 1 0.000000 92.145103 25.200001 0.000000 # CA GRA
330 330 1 0.000000 89.720230 26.600000 0.000000 # CA GRA
331 331 1 0.000000 89.720230 29.400000 0.000000 # CA GRA
332 332 1 0.000000 92.145103 30.799999 0.000000 # CA GRA
333 333 1 0.000000 96.994843 25.200001 0.000000 # CA GRA
334 334 1 0.000000 94.569977 26.600000 0.000000 # CA GRA
335 335 1 0.000000 94.569977 29.400000 0.000000 # CA GRA
336 336 1 0.000000 96.994843 30.799999 0.000000 # CA GRA
337 337 1 0.000000 0.000000 33.599998 0.000000 # CA GRA
338 338 1 0.000000 -2.424871 35.000000 0.000000 # CA GRA
339 339 1 0.000000 -2.424871 37.799999 0.000000 # CA GRA
340 340 1 0.000000 0.000000 39.200001 0.000000 # CA GRA
341 341 1 0.000000 4.849742 33.599998 0.000000 # CA GRA
342 342 1 0.000000 2.424871 35.000000 0.000000 # CA GRA
343 343 1 0.000000 2.424871 37.799999 0.000000 # CA GRA
344 344 1 0.000000 4.849742 39.200001 0.000000 # CA GRA
345 345 1 0.000000 9.699485 33.599998 0.000000 # CA GRA
346 346 1 0.000000 7.274613 35.000000 0.000000 # CA GRA
347 347 1 0.000000 7.274613 37.799999 0.000000 # CA GRA
348 348 1 0.000000 9.699485 39.200001 0.000000 # CA GRA
349 349 1 0.000000 14.549227 33.599998 0.000000 # CA GRA
350 350 1 0.000000 12.124355 35.000000 0.000000 # CA GRA
351 351 1 0.000000 12.124355 37.799999 0.000000 # CA GRA
352 352 1 0.000000 14.549227 39.200001 0.000000 # CA GRA
353 353 1 0.000000 19.398970 33.599998 0.000000 # CA GRA
354 354 1 0.000000 16.974098 35.000000 0.000000 # CA GRA
355 355 1 0.000000 16.974098 37.799999 0.000000 # CA GRA
356 356 1 0.000000 19.398970 39.200001 0.000000 # CA GRA
357 357 1 0.000000 24.248711 33.599998 0.000000 # CA GRA
358 358 1 0.000000 21.823841 35.000000 0.000000 # CA GRA
359 359 1 0.000000 21.823841 37.799999 0.000000 # CA GRA
360 360 1 0.000000 24.248711 39.200001 0.000000 # CA GRA
361 361 1 0.000000 29.098454 33.599998 0.000000 # CA GRA
362 362 1 0.000000 26.673582 35.000000 0.000000 # CA GRA
363 363 1 0.000000 26.673582 37.799999 0.000000 # CA GRA
364 364 1 0.000000 29.098454 39.200001 0.000000 # CA GRA
365 365 1 0.000000 33.948196 33.599998 0.000000 # CA GRA
366 366 1 0.000000 31.523325 35.000000 0.000000 # CA GRA
367 367 1 0.000000 31.523325 37.799999 0.000000 # CA GRA
368 368 1 0.000000 33.948196 39.200001 0.000000 # CA GRA
369 369 1 0.000000 38.797939 33.599998 0.000000 # CA GRA
370 370 1 0.000000 36.373066 35.000000 0.000000 # CA GRA
371 371 1 0.000000 36.373066 37.799999 0.000000 # CA GRA
372 372 1 0.000000 38.797939 39.200001 0.000000 # CA GRA
373 373 1 0.000000 43.647682 33.599998 0.000000 # CA GRA
374 374 1 0.000000 41.222809 35.000000 0.000000 # CA GRA
375 375 1 0.000000 41.222809 37.799999 0.000000 # CA GRA
376 376 1 0.000000 43.647682 39.200001 0.000000 # CA GRA
377 377 1 0.000000 48.497421 33.599998 0.000000 # CA GRA
378 378 1 0.000000 46.072552 35.000000 0.000000 # CA GRA
379 379 1 0.000000 46.072552 37.799999 0.000000 # CA GRA
380 380 1 0.000000 48.497421 39.200001 0.000000 # CA GRA
381 381 1 0.000000 53.347164 33.599998 0.000000 # CA GRA
382 382 1 0.000000 50.922295 35.000000 0.000000 # CA GRA
383 383 1 0.000000 50.922295 37.799999 0.000000 # CA GRA
384 384 1 0.000000 53.347164 39.200001 0.000000 # CA GRA
385 385 1 0.000000 58.196907 33.599998 0.000000 # CA GRA
386 386 1 0.000000 55.772038 35.000000 0.000000 # CA GRA
387 387 1 0.000000 55.772038 37.799999 0.000000 # CA GRA
388 388 1 0.000000 58.196907 39.200001 0.000000 # CA GRA
389 389 1 0.000000 63.046650 33.599998 0.000000 # CA GRA
390 390 1 0.000000 60.621777 35.000000 0.000000 # CA GRA
391 391 1 0.000000 60.621777 37.799999 0.000000 # CA GRA
392 392 1 0.000000 63.046650 39.200001 0.000000 # CA GRA
393 393 1 0.000000 67.896393 33.599998 0.000000 # CA GRA
394 394 1 0.000000 65.471519 35.000000 0.000000 # CA GRA
395 395 1 0.000000 65.471519 37.799999 0.000000 # CA GRA
396 396 1 0.000000 67.896393 39.200001 0.000000 # CA GRA
397 397 1 0.000000 72.746132 33.599998 0.000000 # CA GRA
398 398 1 0.000000 70.321266 35.000000 0.000000 # CA GRA
399 399 1 0.000000 70.321266 37.799999 0.000000 # CA GRA
400 400 1 0.000000 72.746132 39.200001 0.000000 # CA GRA
401 401 1 0.000000 77.595879 33.599998 0.000000 # CA GRA
402 402 1 0.000000 75.171005 35.000000 0.000000 # CA GRA
403 403 1 0.000000 75.171005 37.799999 0.000000 # CA GRA
404 404 1 0.000000 77.595879 39.200001 0.000000 # CA GRA
405 405 1 0.000000 82.445618 33.599998 0.000000 # CA GRA
406 406 1 0.000000 80.020744 35.000000 0.000000 # CA GRA
407 407 1 0.000000 80.020744 37.799999 0.000000 # CA GRA
408 408 1 0.000000 82.445618 39.200001 0.000000 # CA GRA
409 409 1 0.000000 87.295364 33.599998 0.000000 # CA GRA
410 410 1 0.000000 84.870491 35.000000 0.000000 # CA GRA
411 411 1 0.000000 84.870491 37.799999 0.000000 # CA GRA
412 412 1 0.000000 87.295364 39.200001 0.000000 # CA GRA
413 413 1 0.000000 92.145103 33.599998 0.000000 # CA GRA
414 414 1 0.000000 89.720230 35.000000 0.000000 # CA GRA
415 415 1 0.000000 89.720230 37.799999 0.000000 # CA GRA
416 416 1 0.000000 92.145103 39.200001 0.000000 # CA GRA
417 417 1 0.000000 96.994843 33.599998 0.000000 # CA GRA
418 418 1 0.000000 94.569977 35.000000 0.000000 # CA GRA
419 419 1 0.000000 94.569977 37.799999 0.000000 # CA GRA
420 420 1 0.000000 96.994843 39.200001 0.000000 # CA GRA
421 421 1 0.000000 0.000000 42.000000 0.000000 # CA GRA
422 422 1 0.000000 -2.424871 43.400002 0.000000 # CA GRA
423 423 1 0.000000 -2.424871 46.200001 0.000000 # CA GRA
424 424 1 0.000000 0.000000 47.599998 0.000000 # CA GRA
425 425 1 0.000000 4.849742 42.000000 0.000000 # CA GRA
426 426 1 0.000000 2.424871 43.400002 0.000000 # CA GRA
427 427 1 0.000000 2.424871 46.200001 0.000000 # CA GRA
428 428 1 0.000000 4.849742 47.599998 0.000000 # CA GRA
429 429 1 0.000000 9.699485 42.000000 0.000000 # CA GRA
430 430 1 0.000000 7.274613 43.400002 0.000000 # CA GRA
431 431 1 0.000000 7.274613 46.200001 0.000000 # CA GRA
432 432 1 0.000000 9.699485 47.599998 0.000000 # CA GRA
433 433 1 0.000000 14.549227 42.000000 0.000000 # CA GRA
434 434 1 0.000000 12.124355 43.400002 0.000000 # CA GRA
435 435 1 0.000000 12.124355 46.200001 0.000000 # CA GRA
436 436 1 0.000000 14.549227 47.599998 0.000000 # CA GRA
437 437 1 0.000000 19.398970 42.000000 0.000000 # CA GRA
438 438 1 0.000000 16.974098 43.400002 0.000000 # CA GRA
439 439 1 0.000000 16.974098 46.200001 0.000000 # CA GRA
440 440 1 0.000000 19.398970 47.599998 0.000000 # CA GRA
441 441 1 0.000000 24.248711 42.000000 0.000000 # CA GRA
442 442 1 0.000000 21.823841 43.400002 0.000000 # CA GRA
443 443 1 0.000000 21.823841 46.200001 0.000000 # CA GRA
444 444 1 0.000000 24.248711 47.599998 0.000000 # CA GRA
445 445 1 0.000000 29.098454 42.000000 0.000000 # CA GRA
446 446 1 0.000000 26.673582 43.400002 0.000000 # CA GRA
447 447 1 0.000000 26.673582 46.200001 0.000000 # CA GRA
448 448 1 0.000000 29.098454 47.599998 0.000000 # CA GRA
449 449 1 0.000000 33.948196 42.000000 0.000000 # CA GRA
450 450 1 0.000000 31.523325 43.400002 0.000000 # CA GRA
451 451 1 0.000000 31.523325 46.200001 0.000000 # CA GRA
452 452 1 0.000000 33.948196 47.599998 0.000000 # CA GRA
453 453 1 0.000000 38.797939 42.000000 0.000000 # CA GRA
454 454 1 0.000000 36.373066 43.400002 0.000000 # CA GRA
455 455 1 0.000000 36.373066 46.200001 0.000000 # CA GRA
456 456 1 0.000000 38.797939 47.599998 0.000000 # CA GRA
457 457 1 0.000000 43.647682 42.000000 0.000000 # CA GRA
458 458 1 0.000000 41.222809 43.400002 0.000000 # CA GRA
459 459 1 0.000000 41.222809 46.200001 0.000000 # CA GRA
460 460 1 0.000000 43.647682 47.599998 0.000000 # CA GRA
461 461 1 0.000000 48.497421 42.000000 0.000000 # CA GRA
462 462 1 0.000000 46.072552 43.400002 0.000000 # CA GRA
463 463 1 0.000000 46.072552 46.200001 0.000000 # CA GRA
464 464 1 0.000000 48.497421 47.599998 0.000000 # CA GRA
465 465 1 0.000000 53.347164 42.000000 0.000000 # CA GRA
466 466 1 0.000000 50.922295 43.400002 0.000000 # CA GRA
467 467 1 0.000000 50.922295 46.200001 0.000000 # CA GRA
468 468 1 0.000000 53.347164 47.599998 0.000000 # CA GRA
469 469 1 0.000000 58.196907 42.000000 0.000000 # CA GRA
470 470 1 0.000000 55.772038 43.400002 0.000000 # CA GRA
471 471 1 0.000000 55.772038 46.200001 0.000000 # CA GRA
472 472 1 0.000000 58.196907 47.599998 0.000000 # CA GRA
473 473 1 0.000000 63.046650 42.000000 0.000000 # CA GRA
474 474 1 0.000000 60.621777 43.400002 0.000000 # CA GRA
475 475 1 0.000000 60.621777 46.200001 0.000000 # CA GRA
476 476 1 0.000000 63.046650 47.599998 0.000000 # CA GRA
477 477 1 0.000000 67.896393 42.000000 0.000000 # CA GRA
478 478 1 0.000000 65.471519 43.400002 0.000000 # CA GRA
479 479 1 0.000000 65.471519 46.200001 0.000000 # CA GRA
480 480 1 0.000000 67.896393 47.599998 0.000000 # CA GRA
481 481 1 0.000000 72.746132 42.000000 0.000000 # CA GRA
482 482 1 0.000000 70.321266 43.400002 0.000000 # CA GRA
483 483 1 0.000000 70.321266 46.200001 0.000000 # CA GRA
484 484 1 0.000000 72.746132 47.599998 0.000000 # CA GRA
485 485 1 0.000000 77.595879 42.000000 0.000000 # CA GRA
486 486 1 0.000000 75.171005 43.400002 0.000000 # CA GRA
487 487 1 0.000000 75.171005 46.200001 0.000000 # CA GRA
488 488 1 0.000000 77.595879 47.599998 0.000000 # CA GRA
489 489 1 0.000000 82.445618 42.000000 0.000000 # CA GRA
490 490 1 0.000000 80.020744 43.400002 0.000000 # CA GRA
491 491 1 0.000000 80.020744 46.200001 0.000000 # CA GRA
492 492 1 0.000000 82.445618 47.599998 0.000000 # CA GRA
493 493 1 0.000000 87.295364 42.000000 0.000000 # CA GRA
494 494 1 0.000000 84.870491 43.400002 0.000000 # CA GRA
495 495 1 0.000000 84.870491 46.200001 0.000000 # CA GRA
496 496 1 0.000000 87.295364 47.599998 0.000000 # CA GRA
497 497 1 0.000000 92.145103 42.000000 0.000000 # CA GRA
498 498 1 0.000000 89.720230 43.400002 0.000000 # CA GRA
499 499 1 0.000000 89.720230 46.200001 0.000000 # CA GRA
500 500 1 0.000000 92.145103 47.599998 0.000000 # CA GRA
501 501 1 0.000000 96.994843 42.000000 0.000000 # CA GRA
502 502 1 0.000000 94.569977 43.400002 0.000000 # CA GRA
503 503 1 0.000000 94.569977 46.200001 0.000000 # CA GRA
504 504 1 0.000000 96.994843 47.599998 0.000000 # CA GRA
505 505 1 0.000000 0.000000 50.400002 0.000000 # CA GRA
506 506 1 0.000000 -2.424871 51.799999 0.000000 # CA GRA
507 507 1 0.000000 -2.424871 54.599998 0.000000 # CA GRA
508 508 1 0.000000 0.000000 56.000000 0.000000 # CA GRA
509 509 1 0.000000 4.849742 50.400002 0.000000 # CA GRA
510 510 1 0.000000 2.424871 51.799999 0.000000 # CA GRA
511 511 1 0.000000 2.424871 54.599998 0.000000 # CA GRA
512 512 1 0.000000 4.849742 56.000000 0.000000 # CA GRA
513 513 1 0.000000 9.699485 50.400002 0.000000 # CA GRA
514 514 1 0.000000 7.274613 51.799999 0.000000 # CA GRA
515 515 1 0.000000 7.274613 54.599998 0.000000 # CA GRA
516 516 1 0.000000 9.699485 56.000000 0.000000 # CA GRA
517 517 1 0.000000 14.549227 50.400002 0.000000 # CA GRA
518 518 1 0.000000 12.124355 51.799999 0.000000 # CA GRA
519 519 1 0.000000 12.124355 54.599998 0.000000 # CA GRA
520 520 1 0.000000 14.549227 56.000000 0.000000 # CA GRA
521 521 1 0.000000 19.398970 50.400002 0.000000 # CA GRA
522 522 1 0.000000 16.974098 51.799999 0.000000 # CA GRA
523 523 1 0.000000 16.974098 54.599998 0.000000 # CA GRA
524 524 1 0.000000 19.398970 56.000000 0.000000 # CA GRA
525 525 1 0.000000 24.248711 50.400002 0.000000 # CA GRA
526 526 1 0.000000 21.823841 51.799999 0.000000 # CA GRA
527 527 1 0.000000 21.823841 54.599998 0.000000 # CA GRA
528 528 1 0.000000 24.248711 56.000000 0.000000 # CA GRA
529 529 1 0.000000 29.098454 50.400002 0.000000 # CA GRA
530 530 1 0.000000 26.673582 51.799999 0.000000 # CA GRA
531 531 1 0.000000 26.673582 54.599998 0.000000 # CA GRA
532 532 1 0.000000 29.098454 56.000000 0.000000 # CA GRA
533 533 1 0.000000 33.948196 50.400002 0.000000 # CA GRA
534 534 1 0.000000 31.523325 51.799999 0.000000 # CA GRA
535 535 1 0.000000 31.523325 54.599998 0.000000 # CA GRA
536 536 1 0.000000 33.948196 56.000000 0.000000 # CA GRA
537 537 1 0.000000 38.797939 50.400002 0.000000 # CA GRA
538 538 1 0.000000 36.373066 51.799999 0.000000 # CA GRA
539 539 1 0.000000 36.373066 54.599998 0.000000 # CA GRA
540 540 1 0.000000 38.797939 56.000000 0.000000 # CA GRA
541 541 1 0.000000 43.647682 50.400002 0.000000 # CA GRA
542 542 1 0.000000 41.222809 51.799999 0.000000 # CA GRA
543 543 1 0.000000 41.222809 54.599998 0.000000 # CA GRA
544 544 1 0.000000 43.647682 56.000000 0.000000 # CA GRA
545 545 1 0.000000 48.497421 50.400002 0.000000 # CA GRA
546 546 1 0.000000 46.072552 51.799999 0.000000 # CA GRA
547 547 1 0.000000 46.072552 54.599998 0.000000 # CA GRA
548 548 1 0.000000 48.497421 56.000000 0.000000 # CA GRA
549 549 1 0.000000 53.347164 50.400002 0.000000 # CA GRA
550 550 1 0.000000 50.922295 51.799999 0.000000 # CA GRA
551 551 1 0.000000 50.922295 54.599998 0.000000 # CA GRA
552 552 1 0.000000 53.347164 56.000000 0.000000 # CA GRA
553 553 1 0.000000 58.196907 50.400002 0.000000 # CA GRA
554 554 1 0.000000 55.772038 51.799999 0.000000 # CA GRA
555 555 1 0.000000 55.772038 54.599998 0.000000 # CA GRA
556 556 1 0.000000 58.196907 56.000000 0.000000 # CA GRA
557 557 1 0.000000 63.046650 50.400002 0.000000 # CA GRA
558 558 1 0.000000 60.621777 51.799999 0.000000 # CA GRA
559 559 1 0.000000 60.621777 54.599998 0.000000 # CA GRA
560 560 1 0.000000 63.046650 56.000000 0.000000 # CA GRA
561 561 1 0.000000 67.896393 50.400002 0.000000 # CA GRA
562 562 1 0.000000 65.471519 51.799999 0.000000 # CA GRA
563 563 1 0.000000 65.471519 54.599998 0.000000 # CA GRA
564 564 1 0.000000 67.896393 56.000000 0.000000 # CA GRA
565 565 1 0.000000 72.746132 50.400002 0.000000 # CA GRA
566 566 1 0.000000 70.321266 51.799999 0.000000 # CA GRA
567 567 1 0.000000 70.321266 54.599998 0.000000 # CA GRA
568 568 1 0.000000 72.746132 56.000000 0.000000 # CA GRA
569 569 1 0.000000 77.595879 50.400002 0.000000 # CA GRA
570 570 1 0.000000 75.171005 51.799999 0.000000 # CA GRA
571 571 1 0.000000 75.171005 54.599998 0.000000 # CA GRA
572 572 1 0.000000 77.595879 56.000000 0.000000 # CA GRA
573 573 1 0.000000 82.445618 50.400002 0.000000 # CA GRA
574 574 1 0.000000 80.020744 51.799999 0.000000 # CA GRA
575 575 1 0.000000 80.020744 54.599998 0.000000 # CA GRA
576 576 1 0.000000 82.445618 56.000000 0.000000 # CA GRA
577 577 1 0.000000 87.295364 50.400002 0.000000 # CA GRA
578 578 1 0.000000 84.870491 51.799999 0.000000 # CA GRA
579 579 1 0.000000 84.870491 54.599998 0.000000 # CA GRA
580 580 1 0.000000 87.295364 56.000000 0.000000 # CA GRA
581 581 1 0.000000 92.145103 50.400002 0.000000 # CA GRA
582 582 1 0.000000 89.720230 51.799999 0.000000 # CA GRA
583 583 1 0.000000 89.720230 54.599998 0.000000 # CA GRA
584 584 1 0.000000 92.145103 56.000000 0.000000 # CA GRA
585 585 1 0.000000 96.994843 50.400002 0.000000 # CA GRA
586 586 1 0.000000 94.569977 51.799999 0.000000 # CA GRA
587 587 1 0.000000 94.569977 54.599998 0.000000 # CA GRA
588 588 1 0.000000 96.994843 56.000000 0.000000 # CA GRA
589 589 1 0.000000 0.000000 58.799999 0.000000 # CA GRA
590 590 1 0.000000 -2.424871 60.200001 0.000000 # CA GRA
591 591 1 0.000000 -2.424871 63.000000 0.000000 # CA GRA
592 592 1 0.000000 0.000000 64.400002 0.000000 # CA GRA
593 593 1 0.000000 4.849742 58.799999 0.000000 # CA GRA
594 594 1 0.000000 2.424871 60.200001 0.000000 # CA GRA
595 595 1 0.000000 2.424871 63.000000 0.000000 # CA GRA
596 596 1 0.000000 4.849742 64.400002 0.000000 # CA GRA
597 597 1 0.000000 9.699485 58.799999 0.000000 # CA GRA
598 598 1 0.000000 7.274613 60.200001 0.000000 # CA GRA
599 599 1 0.000000 7.274613 63.000000 0.000000 # CA GRA
600 600 1 0.000000 9.699485 64.400002 0.000000 # CA GRA
601 601 1 0.000000 14.549227 58.799999 0.000000 # CA GRA
602 602 1 0.000000 12.124355 60.200001 0.000000 # CA GRA
603 603 1 0.000000 12.124355 63.000000 0.000000 # CA GRA
604 604 1 0.000000 14.549227 64.400002 0.000000 # CA GRA
605 605 1 0.000000 19.398970 58.799999 0.000000 # CA GRA
606 606 1 0.000000 16.974098 60.200001 0.000000 # CA GRA
607 607 1 0.000000 16.974098 63.000000 0.000000 # CA GRA
608 608 1 0.000000 19.398970 64.400002 0.000000 # CA GRA
609 609 1 0.000000 24.248711 58.799999 0.000000 # CA GRA
610 610 1 0.000000 21.823841 60.200001 0.000000 # CA GRA
611 611 1 0.000000 21.823841 63.000000 0.000000 # CA GRA
612 612 1 0.000000 24.248711 64.400002 0.000000 # CA GRA
613 613 1 0.000000 29.098454 58.799999 0.000000 # CA GRA
614 614 1 0.000000 26.673582 60.200001 0.000000 # CA GRA
615 615 1 0.000000 26.673582 63.000000 0.000000 # CA GRA
616 616 1 0.000000 29.098454 64.400002 0.000000 # CA GRA
617 617 1 0.000000 33.948196 58.799999 0.000000 # CA GRA
618 618 1 0.000000 31.523325 60.200001 0.000000 # CA GRA
619 619 1 0.000000 31.523325 63.000000 0.000000 # CA GRA
620 620 1 0.000000 33.948196 64.400002 0.000000 # CA GRA
621 621 1 0.000000 38.797939 58.799999 0.000000 # CA GRA
622 622 1 0.000000 36.373066 60.200001 0.000000 # CA GRA
623 623 1 0.000000 36.373066 63.000000 0.000000 # CA GRA
624 624 1 0.000000 38.797939 64.400002 0.000000 # CA GRA
625 625 1 0.000000 43.647682 58.799999 0.000000 # CA GRA
626 626 1 0.000000 41.222809 60.200001 0.000000 # CA GRA
627 627 1 0.000000 41.222809 63.000000 0.000000 # CA GRA
628 628 1 0.000000 43.647682 64.400002 0.000000 # CA GRA
629 629 1 0.000000 48.497421 58.799999 0.000000 # CA GRA
630 630 1 0.000000 46.072552 60.200001 0.000000 # CA GRA
631 631 1 0.000000 46.072552 63.000000 0.000000 # CA GRA
632 632 1 0.000000 48.497421 64.400002 0.000000 # CA GRA
633 633 1 0.000000 53.347164 58.799999 0.000000 # CA GRA
634 634 1 0.000000 50.922295 60.200001 0.000000 # CA GRA
635 635 1 0.000000 50.922295 63.000000 0.000000 # CA GRA
636 636 1 0.000000 53.347164 64.400002 0.000000 # CA GRA
637 637 1 0.000000 58.196907 58.799999 0.000000 # CA GRA
638 638 1 0.000000 55.772038 60.200001 0.000000 # CA GRA
639 639 1 0.000000 55.772038 63.000000 0.000000 # CA GRA
640 640 1 0.000000 58.196907 64.400002 0.000000 # CA GRA
641 641 1 0.000000 63.046650 58.799999 0.000000 # CA GRA
642 642 1 0.000000 60.621777 60.200001 0.000000 # CA GRA
643 643 1 0.000000 60.621777 63.000000 0.000000 # CA GRA
644 644 1 0.000000 63.046650 64.400002 0.000000 # CA GRA
645 645 1 0.000000 67.896393 58.799999 0.000000 # CA GRA
646 646 1 0.000000 65.471519 60.200001 0.000000 # CA GRA
647 647 1 0.000000 65.471519 63.000000 0.000000 # CA GRA
648 648 1 0.000000 67.896393 64.400002 0.000000 # CA GRA
649 649 1 0.000000 72.746132 58.799999 0.000000 # CA GRA
650 650 1 0.000000 70.321266 60.200001 0.000000 # CA GRA
651 651 1 0.000000 70.321266 63.000000 0.000000 # CA GRA
652 652 1 0.000000 72.746132 64.400002 0.000000 # CA GRA
653 653 1 0.000000 77.595879 58.799999 0.000000 # CA GRA
654 654 1 0.000000 75.171005 60.200001 0.000000 # CA GRA
655 655 1 0.000000 75.171005 63.000000 0.000000 # CA GRA
656 656 1 0.000000 77.595879 64.400002 0.000000 # CA GRA
657 657 1 0.000000 82.445618 58.799999 0.000000 # CA GRA
658 658 1 0.000000 80.020744 60.200001 0.000000 # CA GRA
659 659 1 0.000000 80.020744 63.000000 0.000000 # CA GRA
660 660 1 0.000000 82.445618 64.400002 0.000000 # CA GRA
661 661 1 0.000000 87.295364 58.799999 0.000000 # CA GRA
662 662 1 0.000000 84.870491 60.200001 0.000000 # CA GRA
663 663 1 0.000000 84.870491 63.000000 0.000000 # CA GRA
664 664 1 0.000000 87.295364 64.400002 0.000000 # CA GRA
665 665 1 0.000000 92.145103 58.799999 0.000000 # CA GRA
666 666 1 0.000000 89.720230 60.200001 0.000000 # CA GRA
667 667 1 0.000000 89.720230 63.000000 0.000000 # CA GRA
668 668 1 0.000000 92.145103 64.400002 0.000000 # CA GRA
669 669 1 0.000000 96.994843 58.799999 0.000000 # CA GRA
670 670 1 0.000000 94.569977 60.200001 0.000000 # CA GRA
671 671 1 0.000000 94.569977 63.000000 0.000000 # CA GRA
672 672 1 0.000000 96.994843 64.400002 0.000000 # CA GRA
673 673 1 0.000000 0.000000 67.199997 0.000000 # CA GRA
674 674 1 0.000000 -2.424871 68.599998 0.000000 # CA GRA
675 675 1 0.000000 -2.424871 71.400002 0.000000 # CA GRA
676 676 1 0.000000 0.000000 72.800003 0.000000 # CA GRA
677 677 1 0.000000 4.849742 67.199997 0.000000 # CA GRA
678 678 1 0.000000 2.424871 68.599998 0.000000 # CA GRA
679 679 1 0.000000 2.424871 71.400002 0.000000 # CA GRA
680 680 1 0.000000 4.849742 72.800003 0.000000 # CA GRA
681 681 1 0.000000 9.699485 67.199997 0.000000 # CA GRA
682 682 1 0.000000 7.274613 68.599998 0.000000 # CA GRA
683 683 1 0.000000 7.274613 71.400002 0.000000 # CA GRA
684 684 1 0.000000 9.699485 72.800003 0.000000 # CA GRA
685 685 1 0.000000 14.549227 67.199997 0.000000 # CA GRA
686 686 1 0.000000 12.124355 68.599998 0.000000 # CA GRA
687 687 1 0.000000 12.124355 71.400002 0.000000 # CA GRA
688 688 1 0.000000 14.549227 72.800003 0.000000 # CA GRA
689 689 1 0.000000 19.398970 67.199997 0.000000 # CA GRA
690 690 1 0.000000 16.974098 68.599998 0.000000 # CA GRA
691 691 1 0.000000 16.974098 71.400002 0.000000 # CA GRA
692 692 1 0.000000 19.398970 72.800003 0.000000 # CA GRA
693 693 1 0.000000 24.248711 67.199997 0.000000 # CA GRA
694 694 1 0.000000 21.823841 68.599998 0.000000 # CA GRA
695 695 1 0.000000 21.823841 71.400002 0.000000 # CA GRA
696 696 1 0.000000 24.248711 72.800003 0.000000 # CA GRA
697 697 1 0.000000 29.098454 67.199997 0.000000 # CA GRA
698 698 1 0.000000 26.673582 68.599998 0.000000 # CA GRA
699 699 1 0.000000 26.673582 71.400002 0.000000 # CA GRA
700 700 1 0.000000 29.098454 72.800003 0.000000 # CA GRA
701 701 1 0.000000 33.948196 67.199997 0.000000 # CA GRA
702 702 1 0.000000 31.523325 68.599998 0.000000 # CA GRA
703 703 1 0.000000 31.523325 71.400002 0.000000 # CA GRA
704 704 1 0.000000 33.948196 72.800003 0.000000 # CA GRA
705 705 1 0.000000 38.797939 67.199997 0.000000 # CA GRA
706 706 1 0.000000 36.373066 68.599998 0.000000 # CA GRA
707 707 1 0.000000 36.373066 71.400002 0.000000 # CA GRA
708 708 1 0.000000 38.797939 72.800003 0.000000 # CA GRA
709 709 1 0.000000 43.647682 67.199997 0.000000 # CA GRA
710 710 1 0.000000 41.222809 68.599998 0.000000 # CA GRA
711 711 1 0.000000 41.222809 71.400002 0.000000 # CA GRA
712 712 1 0.000000 43.647682 72.800003 0.000000 # CA GRA
713 713 1 0.000000 48.497421 67.199997 0.000000 # CA GRA
714 714 1 0.000000 46.072552 68.599998 0.000000 # CA GRA
715 715 1 0.000000 46.072552 71.400002 0.000000 # CA GRA
716 716 1 0.000000 48.497421 72.800003 0.000000 # CA GRA
717 717 1 0.000000 53.347164 67.199997 0.000000 # CA GRA
718 718 1 0.000000 50.922295 68.599998 0.000000 # CA GRA
719 719 1 0.000000 50.922295 71.400002 0.000000 # CA GRA
720 720 1 0.000000 53.347164 72.800003 0.000000 # CA GRA
721 721 1 0.000000 58.196907 67.199997 0.000000 # CA GRA
722 722 1 0.000000 55.772038 68.599998 0.000000 # CA GRA
723 723 1 0.000000 55.772038 71.400002 0.000000 # CA GRA
724 724 1 0.000000 58.196907 72.800003 0.000000 # CA GRA
725 725 1 0.000000 63.046650 67.199997 0.000000 # CA GRA
726 726 1 0.000000 60.621777 68.599998 0.000000 # CA GRA
727 727 1 0.000000 60.621777 71.400002 0.000000 # CA GRA
728 728 1 0.000000 63.046650 72.800003 0.000000 # CA GRA
729 729 1 0.000000 67.896393 67.199997 0.000000 # CA GRA
730 730 1 0.000000 65.471519 68.599998 0.000000 # CA GRA
731 731 1 0.000000 65.471519 71.400002 0.000000 # CA GRA
732 732 1 0.000000 67.896393 72.800003 0.000000 # CA GRA
733 733 1 0.000000 72.746132 67.199997 0.000000 # CA GRA
734 734 1 0.000000 70.321266 68.599998 0.000000 # CA GRA
735 735 1 0.000000 70.321266 71.400002 0.000000 # CA GRA
736 736 1 0.000000 72.746132 72.800003 0.000000 # CA GRA
737 737 1 0.000000 77.595879 67.199997 0.000000 # CA GRA
738 738 1 0.000000 75.171005 68.599998 0.000000 # CA GRA
739 739 1 0.000000 75.171005 71.400002 0.000000 # CA GRA
740 740 1 0.000000 77.595879 72.800003 0.000000 # CA GRA
741 741 1 0.000000 82.445618 67.199997 0.000000 # CA GRA
742 742 1 0.000000 80.020744 68.599998 0.000000 # CA GRA
743 743 1 0.000000 80.020744 71.400002 0.000000 # CA GRA
744 744 1 0.000000 82.445618 72.800003 0.000000 # CA GRA
745 745 1 0.000000 87.295364 67.199997 0.000000 # CA GRA
746 746 1 0.000000 84.870491 68.599998 0.000000 # CA GRA
747 747 1 0.000000 84.870491 71.400002 0.000000 # CA GRA
748 748 1 0.000000 87.295364 72.800003 0.000000 # CA GRA
749 749 1 0.000000 92.145103 67.199997 0.000000 # CA GRA
750 750 1 0.000000 89.720230 68.599998 0.000000 # CA GRA
751 751 1 0.000000 89.720230 71.400002 0.000000 # CA GRA
752 752 1 0.000000 92.145103 72.800003 0.000000 # CA GRA
753 753 1 0.000000 96.994843 67.199997 0.000000 # CA GRA
754 754 1 0.000000 94.569977 68.599998 0.000000 # CA GRA
755 755 1 0.000000 94.569977 71.400002 0.000000 # CA GRA
756 756 1 0.000000 96.994843 72.800003 0.000000 # CA GRA
757 757 1 0.000000 0.000000 75.599998 0.000000 # CA GRA
758 758 1 0.000000 -2.424871 77.000000 0.000000 # CA GRA
759 759 1 0.000000 -2.424871 79.800003 0.000000 # CA GRA
760 760 1 0.000000 0.000000 81.199997 0.000000 # CA GRA
761 761 1 0.000000 4.849742 75.599998 0.000000 # CA GRA
762 762 1 0.000000 2.424871 77.000000 0.000000 # CA GRA
763 763 1 0.000000 2.424871 79.800003 0.000000 # CA GRA
764 764 1 0.000000 4.849742 81.199997 0.000000 # CA GRA
765 765 1 0.000000 9.699485 75.599998 0.000000 # CA GRA
766 766 1 0.000000 7.274613 77.000000 0.000000 # CA GRA
767 767 1 0.000000 7.274613 79.800003 0.000000 # CA GRA
768 768 1 0.000000 9.699485 81.199997 0.000000 # CA GRA
769 769 1 0.000000 14.549227 75.599998 0.000000 # CA GRA
770 770 1 0.000000 12.124355 77.000000 0.000000 # CA GRA
771 771 1 0.000000 12.124355 79.800003 0.000000 # CA GRA
772 772 1 0.000000 14.549227 81.199997 0.000000 # CA GRA
773 773 1 0.000000 19.398970 75.599998 0.000000 # CA GRA
774 774 1 0.000000 16.974098 77.000000 0.000000 # CA GRA
775 775 1 0.000000 16.974098 79.800003 0.000000 # CA GRA
776 776 1 0.000000 19.398970 81.199997 0.000000 # CA GRA
777 777 1 0.000000 24.248711 75.599998 0.000000 # CA GRA
778 778 1 0.000000 21.823841 77.000000 0.000000 # CA GRA
779 779 1 0.000000 21.823841 79.800003 0.000000 # CA GRA
780 780 1 0.000000 24.248711 81.199997 0.000000 # CA GRA
781 781 1 0.000000 29.098454 75.599998 0.000000 # CA GRA
782 782 1 0.000000 26.673582 77.000000 0.000000 # CA GRA
783 783 1 0.000000 26.673582 79.800003 0.000000 # CA GRA
784 784 1 0.000000 29.098454 81.199997 0.000000 # CA GRA
785 785 1 0.000000 33.948196 75.599998 0.000000 # CA GRA
786 786 1 0.000000 31.523325 77.000000 0.000000 # CA GRA
787 787 1 0.000000 31.523325 79.800003 0.000000 # CA GRA
788 788 1 0.000000 33.948196 81.199997 0.000000 # CA GRA
789 789 1 0.000000 38.797939 75.599998 0.000000 # CA GRA
790 790 1 0.000000 36.373066 77.000000 0.000000 # CA GRA
791 791 1 0.000000 36.373066 79.800003 0.000000 # CA GRA
792 792 1 0.000000 38.797939 81.199997 0.000000 # CA GRA
793 793 1 0.000000 43.647682 75.599998 0.000000 # CA GRA
794 794 1 0.000000 41.222809 77.000000 0.000000 # CA GRA
795 795 1 0.000000 41.222809 79.800003 0.000000 # CA GRA
796 796 1 0.000000 43.647682 81.199997 0.000000 # CA GRA
797 797 1 0.000000 48.497421 75.599998 0.000000 # CA GRA
798 798 1 0.000000 46.072552 77.000000 0.000000 # CA GRA
799 799 1 0.000000 46.072552 79.800003 0.000000 # CA GRA
800 800 1 0.000000 48.497421 81.199997 0.000000 # CA GRA
801 801 1 0.000000 53.347164 75.599998 0.000000 # CA GRA
802 802 1 0.000000 50.922295 77.000000 0.000000 # CA GRA
803 803 1 0.000000 50.922295 79.800003 0.000000 # CA GRA
804 804 1 0.000000 53.347164 81.199997 0.000000 # CA GRA
805 805 1 0.000000 58.196907 75.599998 0.000000 # CA GRA
806 806 1 0.000000 55.772038 77.000000 0.000000 # CA GRA
807 807 1 0.000000 55.772038 79.800003 0.000000 # CA GRA
808 808 1 0.000000 58.196907 81.199997 0.000000 # CA GRA
809 809 1 0.000000 63.046650 75.599998 0.000000 # CA GRA
810 810 1 0.000000 60.621777 77.000000 0.000000 # CA GRA
811 811 1 0.000000 60.621777 79.800003 0.000000 # CA GRA
812 812 1 0.000000 63.046650 81.199997 0.000000 # CA GRA
813 813 1 0.000000 67.896393 75.599998 0.000000 # CA GRA
814 814 1 0.000000 65.471519 77.000000 0.000000 # CA GRA
815 815 1 0.000000 65.471519 79.800003 0.000000 # CA GRA
816 816 1 0.000000 67.896393 81.199997 0.000000 # CA GRA
817 817 1 0.000000 72.746132 75.599998 0.000000 # CA GRA
818 818 1 0.000000 70.321266 77.000000 0.000000 # CA GRA
819 819 1 0.000000 70.321266 79.800003 0.000000 # CA GRA
820 820 1 0.000000 72.746132 81.199997 0.000000 # CA GRA
821 821 1 0.000000 77.595879 75.599998 0.000000 # CA GRA
822 822 1 0.000000 75.171005 77.000000 0.000000 # CA GRA
823 823 1 0.000000 75.171005 79.800003 0.000000 # CA GRA
824 824 1 0.000000 77.595879 81.199997 0.000000 # CA GRA
825 825 1 0.000000 82.445618 75.599998 0.000000 # CA GRA
826 826 1 0.000000 80.020744 77.000000 0.000000 # CA GRA
827 827 1 0.000000 80.020744 79.800003 0.000000 # CA GRA
828 828 1 0.000000 82.445618 81.199997 0.000000 # CA GRA
829 829 1 0.000000 87.295364 75.599998 0.000000 # CA GRA
830 830 1 0.000000 84.870491 77.000000 0.000000 # CA GRA
831 831 1 0.000000 84.870491 79.800003 0.000000 # CA GRA
832 832 1 0.000000 87.295364 81.199997 0.000000 # CA GRA
833 833 1 0.000000 92.145103 75.599998 0.000000 # CA GRA
834 834 1 0.000000 89.720230 77.000000 0.000000 # CA GRA
835 835 1 0.000000 89.720230 79.800003 0.000000 # CA GRA
836 836 1 0.000000 92.145103 81.199997 0.000000 # CA GRA
837 837 1 0.000000 96.994843 75.599998 0.000000 # CA GRA
838 838 1 0.000000 94.569977 77.000000 0.000000 # CA GRA
839 839 1 0.000000 94.569977 79.800003 0.000000 # CA GRA
840 840 1 0.000000 96.994843 81.199997 0.000000 # CA GRA
841 841 1 0.000000 0.000000 84.000000 0.000000 # CA GRA
842 842 1 0.000000 -2.424871 85.400002 0.000000 # CA GRA
843 843 1 0.000000 -2.424871 88.199997 0.000000 # CA GRA
844 844 1 0.000000 0.000000 89.599998 0.000000 # CA GRA
845 845 1 0.000000 4.849742 84.000000 0.000000 # CA GRA
846 846 1 0.000000 2.424871 85.400002 0.000000 # CA GRA
847 847 1 0.000000 2.424871 88.199997 0.000000 # CA GRA
848 848 1 0.000000 4.849742 89.599998 0.000000 # CA GRA
849 849 1 0.000000 9.699485 84.000000 0.000000 # CA GRA
850 850 1 0.000000 7.274613 85.400002 0.000000 # CA GRA
851 851 1 0.000000 7.274613 88.199997 0.000000 # CA GRA
852 852 1 0.000000 9.699485 89.599998 0.000000 # CA GRA
853 853 1 0.000000 14.549227 84.000000 0.000000 # CA GRA
854 854 1 0.000000 12.124355 85.400002 0.000000 # CA GRA
855 855 1 0.000000 12.124355 88.199997 0.000000 # CA GRA
856 856 1 0.000000 14.549227 89.599998 0.000000 # CA GRA
857 857 1 0.000000 19.398970 84.000000 0.000000 # CA GRA
858 858 1 0.000000 16.974098 85.400002 0.000000 # CA GRA
859 859 1 0.000000 16.974098 88.199997 0.000000 # CA GRA
860 860 1 0.000000 19.398970 89.599998 0.000000 # CA GRA
861 861 1 0.000000 24.248711 84.000000 0.000000 # CA GRA
862 862 1 0.000000 21.823841 85.400002 0.000000 # CA GRA
863 863 1 0.000000 21.823841 88.199997 0.000000 # CA GRA
864 864 1 0.000000 24.248711 89.599998 0.000000 # CA GRA
865 865 1 0.000000 29.098454 84.000000 0.000000 # CA GRA
866 866 1 0.000000 26.673582 85.400002 0.000000 # CA GRA
867 867 1 0.000000 26.673582 88.199997 0.000000 # CA GRA
868 868 1 0.000000 29.098454 89.599998 0.000000 # CA GRA
869 869 1 0.000000 33.948196 84.000000 0.000000 # CA GRA
870 870 1 0.000000 31.523325 85.400002 0.000000 # CA GRA
871 871 1 0.000000 31.523325 88.199997 0.000000 # CA GRA
872 872 1 0.000000 33.948196 89.599998 0.000000 # CA GRA
873 873 1 0.000000 38.797939 84.000000 0.000000 # CA GRA
874 874 1 0.000000 36.373066 85.400002 0.000000 # CA GRA
875 875 1 0.000000 36.373066 88.199997 0.000000 # CA GRA
876 876 1 0.000000 38.797939 89.599998 0.000000 # CA GRA
877 877 1 0.000000 43.647682 84.000000 0.000000 # CA GRA
878 878 1 0.000000 41.222809 85.400002 0.000000 # CA GRA
879 879 1 0.000000 41.222809 88.199997 0.000000 # CA GRA
880 880 1 0.000000 43.647682 89.599998 0.000000 # CA GRA
881 881 1 0.000000 48.497421 84.000000 0.000000 # CA GRA
882 882 1 0.000000 46.072552 85.400002 0.000000 # CA GRA
883 883 1 0.000000 46.072552 88.199997 0.000000 # CA GRA
884 884 1 0.000000 48.497421 89.599998 0.000000 # CA GRA
885 885 1 0.000000 53.347164 84.000000 0.000000 # CA GRA
886 886 1 0.000000 50.922295 85.400002 0.000000 # CA GRA
887 887 1 0.000000 50.922295 88.199997 0.000000 # CA GRA
888 888 1 0.000000 53.347164 89.599998 0.000000 # CA GRA
889 889 1 0.000000 58.196907 84.000000 0.000000 # CA GRA
890 890 1 0.000000 55.772038 85.400002 0.000000 # CA GRA
891 891 1 0.000000 55.772038 88.199997 0.000000 # CA GRA
892 892 1 0.000000 58.196907 89.599998 0.000000 # CA GRA
893 893 1 0.000000 63.046650 84.000000 0.000000 # CA GRA
894 894 1 0.000000 60.621777 85.400002 0.000000 # CA GRA
895 895 1 0.000000 60.621777 88.199997 0.000000 # CA GRA
896 896 1 0.000000 63.046650 89.599998 0.000000 # CA GRA
897 897 1 0.000000 67.896393 84.000000 0.000000 # CA GRA
898 898 1 0.000000 65.471519 85.400002 0.000000 # CA GRA
899 899 1 0.000000 65.471519 88.199997 0.000000 # CA GRA
900 900 1 0.000000 67.896393 89.599998 0.000000 # CA GRA
901 901 1 0.000000 72.746132 84.000000 0.000000 # CA GRA
902 902 1 0.000000 70.321266 85.400002 0.000000 # CA GRA
903 903 1 0.000000 70.321266 88.199997 0.000000 # CA GRA
904 904 1 0.000000 72.746132 89.599998 0.000000 # CA GRA
905 905 1 0.000000 77.595879 84.000000 0.000000 # CA GRA
906 906 1 0.000000 75.171005 85.400002 0.000000 # CA GRA
907 907 1 0.000000 75.171005 88.199997 0.000000 # CA GRA
908 908 1 0.000000 77.595879 89.599998 0.000000 # CA GRA
909 909 1 0.000000 82.445618 84.000000 0.000000 # CA GRA
910 910 1 0.000000 80.020744 85.400002 0.000000 # CA GRA
911 911 1 0.000000 80.020744 88.199997 0.000000 # CA GRA
912 912 1 0.000000 82.445618 89.599998 0.000000 # CA GRA
913 913 1 0.000000 87.295364 84.000000 0.000000 # CA GRA
914 914 1 0.000000 84.870491 85.400002 0.000000 # CA GRA
915 915 1 0.000000 84.870491 88.199997 0.000000 # CA GRA
916 916 1 0.000000 87.295364 89.599998 0.000000 # CA GRA
917 917 1 0.000000 92.145103 84.000000 0.000000 # CA GRA
918 918 1 0.000000 89.720230 85.400002 0.000000 # CA GRA
919 919 1 0.000000 89.720230 88.199997 0.000000 # CA GRA
920 920 1 0.000000 92.145103 89.599998 0.000000 # CA GRA
921 921 1 0.000000 96.994843 84.000000 0.000000 # CA GRA
922 922 1 0.000000 94.569977 85.400002 0.000000 # CA GRA
923 923 1 0.000000 94.569977 88.199997 0.000000 # CA GRA
924 924 1 0.000000 96.994843 89.599998 0.000000 # CA GRA
925 925 1 0.000000 0.000000 92.400002 0.000000 # CA GRA
926 926 1 0.000000 -2.424871 93.800003 0.000000 # CA GRA
927 927 1 0.000000 -2.424871 96.599998 0.000000 # CA GRA
928 928 1 0.000000 0.000000 98.000000 0.000000 # CA GRA
929 929 1 0.000000 4.849742 92.400002 0.000000 # CA GRA
930 930 1 0.000000 2.424871 93.800003 0.000000 # CA GRA
931 931 1 0.000000 2.424871 96.599998 0.000000 # CA GRA
932 932 1 0.000000 4.849742 98.000000 0.000000 # CA GRA
933 933 1 0.000000 9.699485 92.400002 0.000000 # CA GRA
934 934 1 0.000000 7.274613 93.800003 0.000000 # CA GRA
935 935 1 0.000000 7.274613 96.599998 0.000000 # CA GRA
936 936 1 0.000000 9.699485 98.000000 0.000000 # CA GRA
937 937 1 0.000000 14.549227 92.400002 0.000000 # CA GRA
938 938 1 0.000000 12.124355 93.800003 0.000000 # CA GRA
939 939 1 0.000000 12.124355 96.599998 0.000000 # CA GRA
940 940 1 0.000000 14.549227 98.000000 0.000000 # CA GRA
941 941 1 0.000000 19.398970 92.400002 0.000000 # CA GRA
942 942 1 0.000000 16.974098 93.800003 0.000000 # CA GRA
943 943 1 0.000000 16.974098 96.599998 0.000000 # CA GRA
944 944 1 0.000000 19.398970 98.000000 0.000000 # CA GRA
945 945 1 0.000000 24.248711 92.400002 0.000000 # CA GRA
946 946 1 0.000000 21.823841 93.800003 0.000000 # CA GRA
947 947 1 0.000000 21.823841 96.599998 0.000000 # CA GRA
948 948 1 0.000000 24.248711 98.000000 0.000000 # CA GRA
949 949 1 0.000000 29.098454 92.400002 0.000000 # CA GRA
950 950 1 0.000000 26.673582 93.800003 0.000000 # CA GRA
951 951 1 0.000000 26.673582 96.599998 0.000000 # CA GRA
952 952 1 0.000000 29.098454 98.000000 0.000000 # CA GRA
953 953 1 0.000000 33.948196 92.400002 0.000000 # CA GRA
954 954 1 0.000000 31.523325 93.800003 0.000000 # CA GRA
955 955 1 0.000000 31.523325 96.599998 0.000000 # CA GRA
956 956 1 0.000000 33.948196 98.000000 0.000000 # CA GRA
957 957 1 0.000000 38.797939 92.400002 0.000000 # CA GRA
958 958 1 0.000000 36.373066 93.800003 0.000000 # CA GRA
959 959 1 0.000000 36.373066 96.599998 0.000000 # CA GRA
960 960 1 0.000000 38.797939 98.000000 0.000000 # CA GRA
961 961 1 0.000000 43.647682 92.400002 0.000000 # CA GRA
962 962 1 0.000000 41.222809 93.800003 0.000000 # CA GRA
963 963 1 0.000000 41.222809 96.599998 0.000000 # CA GRA
964 964 1 0.000000 43.647682 98.000000 0.000000 # CA GRA
965 965 1 0.000000 48.497421 92.400002 0.000000 # CA GRA
966 966 1 0.000000 46.072552 93.800003 0.000000 # CA GRA
967 967 1 0.000000 46.072552 96.599998 0.000000 # CA GRA
968 968 1 0.000000 48.497421 98.000000 0.000000 # CA GRA
969 969 1 0.000000 53.347164 92.400002 0.000000 # CA GRA
970 970 1 0.000000 50.922295 93.800003 0.000000 # CA GRA
971 971 1 0.000000 50.922295 96.599998 0.000000 # CA GRA
972 972 1 0.000000 53.347164 98.000000 0.000000 # CA GRA
973 973 1 0.000000 58.196907 92.400002 0.000000 # CA GRA
974 974 1 0.000000 55.772038 93.800003 0.000000 # CA GRA
975 975 1 0.000000 55.772038 96.599998 0.000000 # CA GRA
976 976 1 0.000000 58.196907 98.000000 0.000000 # CA GRA
977 977 1 0.000000 63.046650 92.400002 0.000000 # CA GRA
978 978 1 0.000000 60.621777 93.800003 0.000000 # CA GRA
979 979 1 0.000000 60.621777 96.599998 0.000000 # CA GRA
980 980 1 0.000000 63.046650 98.000000 0.000000 # CA GRA
981 981 1 0.000000 67.896393 92.400002 0.000000 # CA GRA
982 982 1 0.000000 65.471519 93.800003 0.000000 # CA GRA
983 983 1 0.000000 65.471519 96.599998 0.000000 # CA GRA
984 984 1 0.000000 67.896393 98.000000 0.000000 # CA GRA
985 985 1 0.000000 72.746132 92.400002 0.000000 # CA GRA
986 986 1 0.000000 70.321266 93.800003 0.000000 # CA GRA
987 987 1 0.000000 70.321266 96.599998 0.000000 # CA GRA
988 988 1 0.000000 72.746132 98.000000 0.000000 # CA GRA
989 989 1 0.000000 77.595879 92.400002 0.000000 # CA GRA
990 990 1 0.000000 75.171005 93.800003 0.000000 # CA GRA
991 991 1 0.000000 75.171005 96.599998 0.000000 # CA GRA
992 992 1 0.000000 77.595879 98.000000 0.000000 # CA GRA
993 993 1 0.000000 82.445618 92.400002 0.000000 # CA GRA
994 994 1 0.000000 80.020744 93.800003 0.000000 # CA GRA
995 995 1 0.000000 80.020744 96.599998 0.000000 # CA GRA
996 996 1 0.000000 82.445618 98.000000 0.000000 # CA GRA
997 997 1 0.000000 87.295364 92.400002 0.000000 # CA GRA
998 998 1 0.000000 84.870491 93.800003 0.000000 # CA GRA
999 999 1 0.000000 84.870491 96.599998 0.000000 # CA GRA
1000 1000 1 0.000000 87.295364 98.000000 0.000000 # CA GRA
1001 1001 1 0.000000 92.145103 92.400002 0.000000 # CA GRA
1002 1002 1 0.000000 89.720230 93.800003 0.000000 # CA GRA
1003 1003 1 0.000000 89.720230 96.599998 0.000000 # CA GRA
1004 1004 1 0.000000 92.145103 98.000000 0.000000 # CA GRA
1005 1005 1 0.000000 96.994843 92.400002 0.000000 # CA GRA
1006 1006 1 0.000000 94.569977 93.800003 0.000000 # CA GRA
1007 1007 1 0.000000 94.569977 96.599998 0.000000 # CA GRA
1008 1008 1 0.000000 96.994843 98.000000 0.000000 # CA GRA

 Bonds

1 1 1 2
2 1 1 6
3 1 2 3
4 1 3 4
5 1 4 7
6 1 4 85
7 1 5 6
8 1 5 10
9 1 6 7
10 1 7 8
11 1 8 11
12 1 8 89
13 1 9 14
14 1 9 10
15 1 10 11
16 1 11 12
17 1 12 15
18 1 12 93
19 1 13 18
20 1 13 14
21 1 14 15
22 1 15 16
23 1 16 19
24 1 16 97
25 1 17 22
26 1 17 18
27 1 18 19
28 1 19 20
29 1 20 23
30 1 20 101
31 1 21 22
32 1 21 26
33 1 22 23
34 1 23 24
35 1 24 27
36 1 24 105
37 1 25 26
38 1 25 30
39 1 26 27
40 1 27 28
41 1 28 31
42 1 28 109
43 1 29 34
44 1 29 30
45 1 30 31
46 1 31 32
47 1 32 35
48 1 32 113
49 1 33 38
50 1 33 34
51 1 34 35
52 1 35 36
53 1 36 39
54 1 36 117
55 1 37 42
56 1 37 38
57 1 38 39
58 1 39 40
59 1 40 43
60 1 40 121
61 1 41 42
62 1 41 46
63 1 42 43
64 1 43 44
65 1 44 47
66 1 44 125
67 1 45 46
68 1 45 50
69 1 46 47
70 1 47 48
71 1 48 51
72 1 48 129
73 1 49 54
74 1 49 50
75 1 50 51
76 1 51 52
77 1 52 55
78 1 52 133
79 1 53 58
80 1 53 54
81 1 54 55
82 1 55 56
83 1 56 59
84 1 56 137
85 1 57 62
86 1 57 58
87 1 58 59
88 1 59 60
89 1 60 63
90 1 60 141
91 1 61 62
92 1 61 66
93 1 62 63
94 1 63 64
95 1 64 67
96 1 64 145
97 1 65 66
98 1 65 70
99 1 66 67
100 1 67 68
101 1 68 71
102 1 68 149
103 1 69 74
104 1 69 70
105 1 70 71
106 1 71 72
107 1 72 75
108 1 72 153
109 1 73 78
110 1 73 74
111 1 74 75
112 1 75 76
113 1 76 79
114 1 76 157
115 1 77 82
116 1 77 78
117 1 78 79
118 1 79 80
119 1 80 83
120 1 80 161
121 1 81 82
122 1 82 83
123 1 83 84
124 1 84 165
125 1 85 86
126 1 85 90
127 1 86 87
128 1 87 88
129 1 88 91
130 1 88 169
131 1 89 90
132 1 89 94
133 1 90 91
134 1 91 92
135 1 92 95
136 1 92 173
137 1 93 98
138 1 93 94
139 1 94 95
140 1 95 96
141 1 96 99
142 1 96 177
143 1 97 102
144 1 97 98
145 1 98 99
146 1 99 100
147 1 100 103
148 1 100 181
149 1 101 106
150 1 101 102
151 1 102 103
152 1 103 104
153 1 104 107
154 1 104 185
155 1 105 106
156 1 105 110
157 1 106 107
158 1 107 108
159 1 108 111
160 1 108 189
161 1 109 110
162 1 109 114
163 1 110 111
164 1 111 112
165 1 112 115
166 1 112 193
167 1 113 118
168 1 113 114
169 1 114 115
170 1 115 116
171 1 116 119
172 1 116 197
173 1 117 122
174 1 117 118
175 1 118 119
176 1 119 120
177 1 120 123
178 1 120 201
179 1 121 126
180 1 121 122
181 1 122 123
182 1 123 124
183 1 124 127
184 1 124 205
185 1 125 126
186 1 125 130
187 1 126 127
188 1 127 128
189 1 128 131
190 1 128 209
191 1 129 130
192 1 129 134
193 1 130 131
194 1 131 132
195 1 132 135
196 1 132 213
197 1 133 138
198 1 133 134
199 1 134 135
200 1 135 136
201 1 136 139
202 1 136 217
203 1 137 142
204 1 137 138
205 1 138 139
206 1 139 140
207 1 140 143
208 1 140 221
209 1 141 146
210 1 141 142
211 1 142 143
212 1 143 144
213 1 144 147
214 1 144 225
215 1 145 146
216 1 145 150
217 1 146 147
218 1 147 148
219 1 148 151
220 1 148 229
221 1 149 150
222 1 149 154
223 1 150 151
224 1 151 152
225 1 152 155
226 1 152 233
227 1 153 158
228 1 153 154
229 1 154 155
230 1 155 156
231 1 156 159
232 1 156 237
233 1 157 162
234 1 157 158
235 1 158 159
236 1 159 160
237 1 160 163
238 1 160 241
239 1 161 166
240 1 161 162
241 1 162 163
242 1 163 164
243 1 164 167
244 1 164 245
245 1 165 166
246 1 166 167
247 1 167 168
248 1 168 249
249 1 169 170
250 1 169 174
251 1 170 171
252 1 171 172
253 1 172 175
254 1 172 253
255 1 173 174
256 1 173 178
257 1 174 175
258 1 175 176
259 1 176 179
260 1 176 257
261 1 177 182
262 1 177 178
263 1 178 179
264 1 179 180
265 1 180 183
266 1 180 261
267 1 181 186
268 1 181 182
269 1 182 183
270 1 183 184
271 1 184 187
272 1 184 265
273 1 185 190
274 1 185 186
275 1 186 187
276 1 187 188
277 1 188 191
278 1 188 269
279 1 189 190
280 1 189 194
281 1 190 191
282 1 191 192
283 1 192 195
284 1 192 273
285 1 193 194
286 1 193 198
287 1 194 195
288 1 195 196
289 1 196 199
290 1 196 277
291 1 197 202
292 1 197 198
293 1 198 199
294 1 199 200
295 1 200 203
296 1 200 281
297 1 201 206
298 1 201 202
299 1 202 203
300 1 203 204
301 1 204 207
302 1 204 285
303 1 205 210
304 1 205 206
305 1 206 207
306 1 207 208
307 1 208 211
308 1 208 289
309 1 209 210
310 1 209 214
311 1 210 211
312 1 211 212
313 1 212 215
314 1 212 293
315 1 213 214
316 1 213 218
317 1 214 215
318 1 215 216
319 1 216 219
320 1 216 297
321 1 217 222
322 1 217 218
323 1 218 219
324 1 219 220
325 1 220 223
326 1 220 301
327 1 221 226
328 1 221 222
329 1 222 223
330 1 223 224
331 1 224 227
332 1 224 305
333 1 225 230
334 1 225 226
335 1 226 227
336 1 227 228
337 1 228 231
338 1 228 309
339 1 229 230
340 1 229 234
341 1 230 231
342 1 231 232
343 1 232 235
344 1 232 313
345 1 233 234
346 1 233 238
347 1 234 235
348 1 235 236
349 1 236 239
350 1 236 317
351 1 237 242
352 1 237 238
353 1 238 239
354 1 239 240
355 1 240 243
356 1 240 321
357 1 241 246
358 1 241 242
359 1 242 243
360 1 243 244
361 1 244 247
362 1 244 325
363 1 245 250
364 1 245 246
365 1 246 247
366 1 247 248
367 1 248 251
368 1 248 329
369 1 249 250
370 1 250 251
371 1 251 252
372 1 252 333
373 1 253 254
374 1 253 258
375 1 254 255
376 1 255 256
377 1 256 259
378 1 256 337
379 1 257 258
380 1 257 262
381 1 258 259
382 1 259 260
383 1 260 263
384 1 260 341
385 1 261 266
386 1 261 262
387 1 262 263
388 1 263 264
389 1 264 267
390 1 264 345
391 1 265 270
392 1 265 266
393 1 266 267
394 1 267 268
395 1 268 271
396 1 268 349
397 1 269 274
398 1 269 270
399 1 270 271
400 1 271 272
401 1 272 275
402 1 272 353
403 1 273 274
404 1 273 278
405 1 274 275
406 1 275 276
407 1 276 279
408 1 276 357
409 1 277 278
410 1 277 282
411 1 278 279
412 1 279 280
413 1 280 283
414 1 280 361
415 1 281 286
416 1 281 282
417 1 282 283
418 1 283 284
419 1 284 287
420 1 284 365
421 1 285 286
422 1 285 290
423 1 286 287
424 1 287 288
425 1 288 291
426 1 288 369
427 1 289 294
428 1 289 290
429 1 290 291
430 1 291 292
431 1 292 295
432 1 292 373
433 1 293 294
434 1 293 298
435 1 294 295
436 1 295 296
437 1 296 299
438 1 296 377
439 1 297 298
440 1 297 302
441 1 298 299
442 1 299 300
443 1 300 303
444 1 300 381
445 1 301 306
446 1 301 302
447 1 302 303
448 1 303 304
449 1 304 307
450 1 304 385
451 1 305 310
452 1 305 306
453 1 306 307
454 1 307 308
455 1 308 311
456 1 308 389
457 1 309 314
458 1 309 310
459 1 310 311
460 1 311 312
461 1 312 315
462 1 312 393
463 1 313 314
464 1 313 318
465 1 314 315
466 1 315 316
467 1 316 319
468 1 316 397
469 1 317 318
470 1 317 322
471 1 318 319
472 1 319 320
473 1 320 323
474 1 320 401
475 1 321 326
476 1 321 322
477 1 322 323
478 1 323 324
479 1 324 327
480 1 324 405
481 1 325 330
482 1 325 326
483 1 326 327
484 1 327 328
485 1 328 331
486 1 328 409
487 1 329 334
488 1 329 330
489 1 330 331
490 1 331 332
491 1 332 335
492 1 332 413
493 1 333 334
494 1 334 335
495 1 335 336
496 1 336 417
497 1 337 338
498 1 337 342
499 1 338 339
500 1 339 340
501 1 340 343
502 1 340 421
503 1 341 342
504 1 341 346
505 1 342 343
506 1 343 344
507 1 344 347
508 1 344 425
509 1 345 350
510 1 345 346
511 1 346 347
512 1 347 348
513 1 348 351
514 1 348 429
515 1 349 354
516 1 349 350
517 1 350 351
518 1 351 352
519 1 352 355
520 1 352 433
521 1 353 358
522 1 353 354
523 1 354 355
524 1 355 356
525 1 356 359
526 1 356 437
527 1 357 358
528 1 357 362
529 1 358 359
530 1 359 360
531 1 360 363
532 1 360 441
533 1 361 362
534 1 361 366
535 1 362 363
536 1 363 364
537 1 364 367
538 1 364 445
539 1 365 370
540 1 365 366
541 1 366 367
542 1 367 368
543 1 368 371
544 1 368 449
545 1 369 374
546 1 369 370
547 1 370 371
548 1 371 372
549 1 372 375
550 1 372 453
551 1 373 378
552 1 373 374
553 1 374 375
554 1 375 376
555 1 376 379
556 1 376 457
557 1 377 378
558 1 377 382
559 1 378 379
560 1 379 380
561 1 380 383
562 1 380 461
563 1 381 382
564 1 381 386
565 1 382 383
566 1 383 384
567 1 384 387
568 1 384 465
569 1 385 390
570 1 385 386
571 1 386 387
572 1 387 388
573 1 388 391
574 1 388 469
575 1 389 394
576 1 389 390
577 1 390 391
578 1 391 392
579 1 392 395
580 1 392 473
581 1 393 398
582 1 393 394
583 1 394 395
584 1 395 396
585 1 396 399
586 1 396 477
587 1 397 398
588 1 397 402
589 1 398 399
590 1 399 400
591 1 400 403
592 1 400 481
593 1 401 402
594 1 401 406
595 1 402 403
596 1 403 404
597 1 404 407
598 1 404 485
599 1 405 410
600 1 405 406
601 1 406 407
602 1 407 408
603 1 408 411
604 1 408 489
605 1 409 414
606 1 409 410
607 1 410 411
608 1 411 412
609 1 412 415
610 1 412 493
611 1 413 418
612 1 413 414
613 1 414 415
614 1 415 416
615 1 416 419
616 1 416 497
617 1 417 418
618 1 418 419
619 1 419 420
620 1 420 501
621 1 421 422
622 1 421 426
623 1 422 423
624 1 423 424
625 1 424 427
626 1 424 505
627 1 425 426
628 1 425 430
629 1 426 427
630 1 427 428
631 1 428 431
632 1 428 509
633 1 429 434
634 1 429 430
635 1 430 431
636 1 431 432
637 1 432 435
638 1 432 513
639 1 433 438
640 1 433 434
641 1 434 435
642 1 435 436
643 1 436 439
644 1 436 517
645 1 437 442
646 1 437 438
647 1 438 439
648 1 439 440
649 1 440 443
650 1 440 521
651 1 441 442
652 1 441 446
653 1 442 443
654 1 443 444
655 1 444 447
656 1 444 525
657 1 445 446
658 1 445 450
659 1 446 447
660 1 447 448
661 1 448 451
662 1 448 529
663 1 449 454
664 1 449 450
665 1 450 451
666 1 451 452
667 1 452 455
668 1 452 533
669 1 453 458
670 1 453 454
671 1 454 455
672 1 455 456
673 1 456 459
674 1 456 537
675 1 457 462
676 1 457 458
677 1 458 459
678 1 459 460
679 1 460 463
680 1 460 541
681 1 461 462
682 1 461 466
683 1 462 463
684 1 463 464
685 1 464 467
686 1 464 545
687 1 465 466
688 1 465 470
689 1 466 467
690 1 467 468
691 1 468 471
692 1 468 549
693 1 469 474
694 1 469 470
695 1 470 471
696 1 471 472
697 1 472 475
698 1 472 553
699 1 473 478
700 1 473 474
701 1 474 475
702 1 475 476
703 1 476 479
704 1 476 557
705 1 477 482
706 1 477 478
707 1 478 479
708 1 479 480
709 1 480 483
710 1 480 561
711 1 481 482
712 1 481 486
713 1 482 483
714 1 483 484
715 1 484 487
716 1 484 565
717 1 485 486
718 1 485 490
719 1 486 487
720 1 487 488
721 1 488 491
722 1 488 569
723 1 489 494
724 1 489 490
725 1 490 491
726 1 491 492
727 1 492 495
728 1 492 573
729 1 493 498
730 1 493 494
731 1 494 495
732 1 495 496
733 1 496 499
734 1 496 577
735 1 497 502
736 1 497 498
737 1 498 499
738 1 499 500
739 1 500 503
740 1 500 581
741 1 501 502
742 1 502 503
743 1 503 504
744 1 504 585
745 1 505 506
746 1 505 510
747 1 506 507
748 1 507 508
749 1 508 511
750 1 508 589
751 1 509 510
752 1 509 514
753 1 510 511
754 1 511 512
755 1 512 515
756 1 512 593
757 1 513 518
758 1 513 514
759 1 514 515
760 1 515 516
761 1 516 519
762 1 516 597
763 1 517 522
764 1 517 518
765 1 518 519
766 1 519 520
767 1 520 523
768 1 520 601
769 1 521 526
770 1 521 522
771 1 522 523
772 1 523 524
773 1 524 527
774 1 524 605
775 1 525 526
776 1 525 530
777 1 526 527
778 1 527 528
779 1 528 531
780 1 528 609
781 1 529 530
782 1 529 534
783 1 530 531
784 1 531 532
785 1 532 535
786 1 532 613
787 1 533 538
788 1 533 534
789 1 534 535
790 1 535 536
791 1 536 539
792 1 536 617
793 1 537 542
794 1 537 538
795 1 538 539
796 1 539 540
797 1 540 543
798 1 540 621
799 1 541 546
800 1 541 542
801 1 542 543
802 1 543 544
803 1 544 547
804 1 544 625
805 1 545 546
806 1 545 550
807 1 546 547
808 1 547 548
809 1 548 551
810 1 548 629
811 1 549 550
812 1 549 554
813 1 550 551
814 1 551 552
815 1 552 555
816 1 552 633
817 1 553 558
818 1 553 554
819 1 554 555
820 1 555 556
821 1 556 559
822 1 556 637
823 1 557 562
824 1 557 558
825 1 558 559
826 1 559 560
827 1 560 563
828 1 560 641
829 1 561 566
830 1 561 562
831 1 562 563
832 1 563 564
833 1 564 567
834 1 564 645
835 1 565 566
836 1 565 570
837 1 566 567
838 1 567 568
839 1 568 571
840 1 568 649
841 1 569 570
842 1 569 574
843 1 570 571
844 1 571 572
845 1 572 575
846 1 572 653
847 1 573 578
848 1 573 574
849 1 574 575
850 1 575 576
851 1 576 579
852 1 576 657
853 1 577 582
854 1 577 578
855 1 578 579
856 1 579 580
857 1 580 583
858 1 580 661
859 1 581 586
860 1 581 582
861 1 582 583
862 1 583 584
863 1 584 587
864 1 584 665
865 1 585 586
866 1 586 587
867 1 587 588
868 1 588 669
869 1 589 590
870 1 589 594
871 1 590 591
872 1 591 592
873 1 592 595
874 1 592 673
875 1 593 594
876 1 593 598
877 1 594 595
878 1 595 596
879 1 596 599
880 1 596 677
881 1 597 602
882 1 597 598
883 1 598 599
884 1 599 600
885 1 600 603
886 1 600 681
887 1 601 606
888 1 601 602
889 1 602 603
890 1 603 604
891 1 604 607
892 1 604 685
893 1 605 610
894 1 605 606
895 1 606 607
896 1 607 608
897 1 608 611
898 1 608 689
899 1 609 610
900 1 609 614
901 1 610 611
902 1 611 612
903 1 612 615
904 1 612 693
905 1 613 614
906 1 613 618
907 1 614 615
908 1 615 616
909 1 616 619
910 1 616 697
911 1 617 622
912 1 617 618
913 1 618 619
914 1 619 620
915 1 620 623
916 1 620 701
917 1 621 626
918 1 621 622
919 1 622 623
920 1 623 624
921 1 624 627
922 1 624 705
923 1 625 630
924 1 625 626
925 1 626 627
926 1 627 628
927 1 628 631
928 1 628 709
929 1 629 630
930 1 629 634
931 1 630 631
932 1 631 632
933 1 632 635
934 1 632 713
935 1 633 634
936 1 633 638
937 1 634 635
938 1 635 636
939 1 636 639
940 1 636 717
941 1 637 642
942 1 637 638
943 1 638 639
944 1 639 640
945 1 640 643
946 1 640 721
947 1 641 646
948 1 641 642
949 1 642 643
950 1 643 644
951 1 644 647
952 1 644 725
953 1 645 650
954 1 645 646
955 1 646 647
956 1 647 648
957 1 648 651
958 1 648 729
959 1 649 650
960 1 649 654
961 1 650 651
962 1 651 652
963 1 652 655
964 1 652 733
965 1 653 654
966 1 653 658
967 1 654 655
968 1 655 656
969 1 656 659
970 1 656 737
971 1 657 662
972 1 657 658
973 1 658 659
974 1 659 660
975 1 660 663
976 1 660 741
977 1 661 666
978 1 661 662
979 1 662 663
980 1 663 664
981 1 664 667
982 1 664 745
983 1 665 670
984 1 665 666
985 1 666 667
986 1 667 668
987 1 668 671
988 1 668 749
989 1 669 670
990 1 670 671
991 1 671 672
992 1 672 753
993 1 673 674
994 1 673 678
995 1 674 675
996 1 675 676
997 1 676 757
998 1 676 679
999 1 677 678
1000 1 677 682
1001 1 678 679
1002 1 679 680
1003 1 680 761
1004 1 680 683
1005 1 681 686
1006 1 681 682
1007 1 682 683
1008 1 683 684
1009 1 684 687
1010 1 684 765
1011 1 685 690
1012 1 685 686
1013 1 686 687
1014 1 687 688
1015 1 688 691
1016 1 688 769
1017 1 689 694
1018 1 689 690
1019 1 690 691
1020 1 691 692
1021 1 692 773
1022 1 692 695
1023 1 693 694
1024 1 693 698
1025 1 694 695
1026 1 695 696
1027 1 696 777
1028 1 696 699
1029 1 697 698
1030 1 697 702
1031 1 698 699
1032 1 699 700
1033 1 700 781
1034 1 700 703
1035 1 701 706
1036 1 701 702
1037 1 702 703
1038 1 703 704
1039 1 704 707
1040 1 704 785
1041 1 705 710
1042 1 705 706
1043 1 706 707
1044 1 707 708
1045 1 708 711
1046 1 708 789
1047 1 709 714
1048 1 709 710
1049 1 710 711
1050 1 711 712
1051 1 712 793
1052 1 712 715
1053 1 713 714
1054 1 713 718
1055 1 714 715
1056 1 715 716
1057 1 716 797
1058 1 716 719
1059 1 717 718
1060 1 717 722
1061 1 718 719
1062 1 719 720
1063 1 720 801
1064 1 720 723
1065 1 721 726
1066 1 721 722
1067 1 722 723
1068 1 723 724
1069 1 724 727
1070 1 724 805
1071 1 725 726
1072 1 725 730
1073 1 726 727
1074 1 727 728
1075 1 728 731
1076 1 728 809
1077 1 729 730
1078 1 729 734
1079 1 730 731
1080 1 731 732
1081 1 732 813
1082 1 732 735
1083 1 733 734
1084 1 733 738
1085 1 734 735
1086 1 735 736
1087 1 736 817
1088 1 736 739
1089 1 737 738
1090 1 737 742
1091 1 738 739
1092 1 739 740
1093 1 740 821
1094 1 740 743
1095 1 741 742
1096 1 741 746
1097 1 742 743
1098 1 743 744
1099 1 744 747
1100 1 744 825
1101 1 745 746
1102 1 745 750
1103 1 746 747
1104 1 747 748
1105 1 748 751
1106 1 748 829
1107 1 749 750
1108 1 749 754
1109 1 750 751
1110 1 751 752
1111 1 752 833
1112 1 752 755
1113 1 753 754
1114 1 754 755
1115 1 755 756
1116 1 756 837
1117 1 757 758
1118 1 757 762
1119 1 758 759
1120 1 759 760
1121 1 760 841
1122 1 760 763
1123 1 761 762
1124 1 761 766
1125 1 762 763
1126 1 763 764
1127 1 764 845
1128 1 764 767
1129 1 765 766
1130 1 765 770
1131 1 766 767
1132 1 767 768
1133 1 768 771
1134 1 768 849
1135 1 769 770
1136 1 769 774
1137 1 770 771
1138 1 771 772
1139 1 772 775
1140 1 772 853
1141 1 773 774
1142 1 773 778
1143 1 774 775
1144 1 775 776
1145 1 776 857
1146 1 776 779
1147 1 777 778
1148 1 777 782
1149 1 778 779
1150 1 779 780
1151 1 780 861
1152 1 780 783
1153 1 781 782
1154 1 781 786
1155 1 782 783
1156 1 783 784
1157 1 784 865
1158 1 784 787
1159 1 785 790
1160 1 785 786
1161 1 786 787
1162 1 787 788
1163 1 788 869
1164 1 788 791
1165 1 789 794
1166 1 789 790
1167 1 790 791
1168 1 791 792
1169 1 792 873
1170 1 792 795
1171 1 793 798
1172 1 793 794
1173 1 794 795
1174 1 795 796
1175 1 796 877
1176 1 796 799
1177 1 797 798
1178 1 797 802
1179 1 798 799
1180 1 799 800
1181 1 800 881
1182 1 800 803
1183 1 801 802
1184 1 801 806
1185 1 802 803
1186 1 803 804
1187 1 804 885
1188 1 804 807
1189 1 805 810
1190 1 805 806
1191 1 806 807
1192 1 807 808
1193 1 808 811
1194 1 808 889
1195 1 809 814
1196 1 809 810
1197 1 810 811
1198 1 811 812
1199 1 812 815
1200 1 812 893
1201 1 813 818
1202 1 813 814
1203 1 814 815
1204 1 815 816
1205 1 816 897
1206 1 816 819
1207 1 817 818
1208 1 817 822
1209 1 818 819
1210 1 819 820
1211 1 820 901
1212 1 820 823
1213 1 821 822
1214 1 821 826
1215 1 822 823
1216 1 823 824
1217 1 824 905
1218 1 824 827
1219 1 825 830
1220 1 825 826
1221 1 826 827
1222 1 827 828
1223 1 828 831
1224 1 828 909
1225 1 829 834
1226 1 829 830
1227 1 830 831
1228 1 831 832
1229 1 832 835
1230 1 832 913
1231 1 833 838
1232 1 833 834
1233 1 834 835
1234 1 835 836
1235 1 836 917
1236 1 836 839
1237 1 837 838
1238 1 838 839
1239 1 839 840
1240 1 840 921
1241 1 841 842
1242 1 841 846
1243 1 842 843
1244 1 843 844
1245 1 844 925
1246 1 844 847
1247 1 845 846
1248 1 845 850
1249 1 846 847
1250 1 847 848
1251 1 848 929
1252 1 848 851
1253 1 849 854
1254 1 849 850
1255 1 850 851
1256 1 851 852
1257 1 852 855
1258 1 852 933
1259 1 853 858
1260 1 853 854
1261 1 854 855
1262 1 855 856
1263 1 856 859
1264 1 856 937
1265 1 857 862
1266 1 857 858
1267 1 858 859
1268 1 859 860
1269 1 860 941
1270 1 860 863
1271 1 861 862
1272 1 861 866
1273 1 862 863
1274 1 863 864
1275 1 864 945
1276 1 864 867
1277 1 865 866
1278 1 865 870
1279 1 866 867
1280 1 867 868
1281 1 868 949
1282 1 868 871
1283 1 869 874
1284 1 869 870
1285 1 870 871
1286 1 871 872
1287 1 872 875
1288 1 872 953
1289 1 873 878
1290 1 873 874
1291 1 874 875
1292 1 875 876
1293 1 876 879
1294 1 876 957
1295 1 877 882
1296 1 877 878
1297 1 878 879
1298 1 879 880
1299 1 880 961
1300 1 880 883
1301 1 881 882
1302 1 881 886
1303 1 882 883
1304 1 883 884
1305 1 884 965
1306 1 884 887
1307 1 885 886
1308 1 885 890
1309 1 886 887
1310 1 887 888
1311 1 888 969
1312 1 888 891
1313 1 889 890
1314 1 889 894
1315 1 890 891
1316 1 891 892
1317 1 892 895
1318 1 892 973
1319 1 893 894
1320 1 893 898
1321 1 894 895
1322 1 895 896
1323 1 896 899
1324 1 896 977
1325 1 897 898
1326 1 897 902
1327 1 898 899
1328 1 899 900
1329 1 900 981
1330 1 900 903
1331 1 901 902
1332 1 901 906
1333 1 902 903
1334 1 903 904
1335 1 904 985
1336 1 904 907
1337 1 905 906
1338 1 905 910
1339 1 906 907
1340 1 907 908
1341 1 908 989
1342 1 908 911
1343 1 909 914
1344 1 909 910
1345 1 910 911
1346 1 911 912
1347 1 912 993
1348 1 912 915
1349 1 913 918
1350 1 913 914
1351 1 914 915
1352 1 915 916
1353 1 916 997
1354 1 916 919
1355 1 917 922
1356 1 917 918
1357 1 918 919
1358 1 919 920
1359 1 920 1001
1360 1 920 923
1361 1 921 922
1362 1 922 923
1363 1 923 924
1364 1 924 1005
1365 1 925 926
1366 1 925 930
1367 1 926 927
1368 1 927 928
1369 1 928 931
1370 1 929 930
1371 1 929 934
1372 1 930 931
1373 1 931 932
1374 1 932 935
1375 1 933 938
1376 1 933 934
1377 1 934 935
1378 1 935 936
1379 1 936 939
1380 1 937 942
1381 1 937 938
1382 1 938 939
1383 1 939 940
1384 1 940 943
1385 1 941 946
1386 1 941 942
1387 1 942 943
1388 1 943 944
1389 1 944 947
1390 1 945 946
1391 1 945 950
1392 1 946 947
1393 1 947 948
1394 1 948 951
1395 1 949 950
1396 1 949 954
1397 1 950 951
1398 1 951 952
1399 1 952 955
1400 1 953 958
1401 1 953 954
1402 1 954 955
1403 1 955 956
1404 1 956 959
1405 1 957 962
1406 1 957 958
1407 1 958 959
1408 1 959 960
1409 1 960 963
1410 1 961 966
1411 1 961 962
1412 1 962 963
1413 1 963 964
1414 1 964 967
1415 1 965 966
1416 1 965 970
1417 1 966 967
1418 1 967 968
1419 1 968 971
1420 1 969 970
1421 1 969 974
1422 1 970 971
1423 1 971 972
1424 1 972 975
1425 1 973 978
1426 1 973 974
1427 1 974 975
1428 1 975 976
1429 1 976 979
1430 1 977 982
1431 1 977 978
1432 1 978 979
1433 1 979 980
1434 1 980 983
1435 1 981 986
1436 1 981 982
1437 1 982 983
1438 1 983 984
1439 1 984 987
1440 1 985 986
1441 1 985 990
1442 1 986 987
1443 1 987 988
1444 1 988 991
1445 1 989 990
1446 1 989 994
1447 1 990 991
1448 1 991 992
1449 1 992 995
1450 1 993 998
1451 1 993 994
1452 1 994 995
1453 1 995 996
1454 1 996 999
1455 1 997 1002
1456 1 997 998
1457 1 998 999
1458 1 999 1000
1459 1 1000 1003
1460 1 1001 1006
1461 1 1001 1002
1462 1 1002 1003
1463 1 1003 1004
1464 1 1004 1007
1465 1 1005 1006
1466 1 1006 1007
1467 1 1007 1008

 Angles

1 1 2 1 6
2 1 1 2 3
3 1 2 3 4
4 1 3 4 7
5 1 3 4 85
6 1 7 4 85
7 1 6 5 10
8 1 1 6 5
9 1 1 6 7
10 1 5 6 7
11 1 4 7 6
12 1 4 7 8
13 1 6 7 8
14 1 7 8 11
15 1 7 8 89
16 1 11 8 89
17 1 10 9 14
18 1 5 10 9
19 1 5 10 11
20 1 9 10 11
21 1 8 11 10
22 1 8 11 12
23 1 10 11 12
24 1 11 12 15
25 1 11 12 93
26 1 15 12 93
27 1 14 13 18
28 1 9 14 13
29 1 9 14 15
30 1 13 14 15
31 1 12 15 14
32 1 12 15 16
33 1 14 15 16
34 1 15 16 19
35 1 15 16 97
36 1 19 16 97
37 1 18 17 22
38 1 13 18 17
39 1 13 18 19
40 1 17 18 19
41 1 16 19 18
42 1 16 19 20
43 1 18 19 20
44 1 19 20 23
45 1 19 20 101
46 1 23 20 101
47 1 22 21 26
48 1 17 22 21
49 1 17 22 23
50 1 21 22 23
51 1 20 23 22
52 1 20 23 24
53 1 22 23 24
54 1 23 24 27
55 1 23 24 105
56 1 27 24 105
57 1 26 25 30
58 1 21 26 25
59 1 21 26 27
60 1 25 26 27
61 1 24 27 26
62 1 24 27 28
63 1 26 27 28
64 1 27 28 31
65 1 27 28 109
66 1 31 28 109
67 1 30 29 34
68 1 25 30 29
69 1 25 30 31
70 1 29 30 31
71 1 28 31 30
72 1 28 31 32
73 1 30 31 32
74 1 31 32 35
75 1 31 32 113
76 1 35 32 113
77 1 34 33 38
78 1 29 34 33
79 1 29 34 35
80 1 33 34 35
81 1 32 35 34
82 1 32 35 36
83 1 34 35 36
84 1 35 36 39
85 1 35 36 117
86 1 39 36 117
87 1 38 37 42
88 1 33 38 37
89 1 33 38 39
90 1 37 38 39
91 1 36 39 38
92 1 36 39 40
93 1 38 39 40
94 1 39 40 43
95 1 39 40 121
96 1 43 40 121
97 1 42 41 46
98 1 37 42 41
99 1 37 42 43
100 1 41 42 43
101 1 40 43 42
102 1 40 43 44
103 1 42 43 44
104 1 43 44 47
105 1 43 44 125
106 1 47 44 125
107 1 46 45 50
108 1 41 46 45
109 1 41 46 47
110 1 45 46 47
111 1 44 47 46
112 1 44 47 48
113 1 46 47 48
114 1 47 48 51
115 1 47 48 129
116 1 51 48 129
117 1 50 49 54
118 1 45 50 49
119 1 45 50 51
120 1 49 50 51
121 1 48 51 50
122 1 48 51 52
123 1 50 51 52
124 1 51 52 55
125 1 51 52 133
126 1 55 52 133
127 1 54 53 58
128 1 49 54 53
129 1 49 54 55
130 1 53 54 55
131 1 52 55 54
132 1 52 55 56
133 1 54 55 56
134 1 55 56 59
135 1 55 56 137
136 1 59 56 137
137 1 58 57 62
138 1 53 58 57
139 1 53 58 59
140 1 57 58 59
141 1 56 59 58
142 1 56 59 60
143 1 58 59 60
144 1 59 60 63
145 1 59 60 141
146 1 63 60 141
147 1 62 61 66
148 1 57 62 61
149 1 57 62 63
150 1 61 62 63
151 1 60 63 62
152 1 60 63 64
153 1 62 63 64
154 1 63 64 67
155 1 63 64 145
156 1 67 64 145
157 1 66 65 70
158 1 61 66 65
159 1 61 66 67
160 1 65 66 67
161 1 64 67 66
162 1 64 67 68
163 1 66 67 68
164 1 67 68 71
165 1 67 68 149
166 1 71 68 149
167 1 70 69 74
168 1 65 70 69
169 1 65 70 71
170 1 69 70 71
171 1 68 71 70
172 1 68 71 72
173 1 70 71 72
174 1 71 72 75
175 1 71 72 153
176 1 75 72 153
177 1 74 73 78
178 1 69 74 73
179 1 69 74 75
180 1 73 74 75
181 1 72 75 74
182 1 72 75 76
183 1 74 75 76
184 1 75 76 79
185 1 75 76 157
186 1 79 76 157
187 1 78 77 82
188 1 73 78 77
189 1 73 78 79
190 1 77 78 79
191 1 76 79 78
192 1 76 79 80
193 1 78 79 80
194 1 79 80 83
195 1 79 80 161
196 1 83 80 161
197 1 77 82 81
198 1 77 82 83
199 1 81 82 83
200 1 80 83 82
201 1 80 83 84
202 1 82 83 84
203 1 83 84 165
204 1 4 85 86
205 1 4 85 90
206 1 86 85 90
207 1 85 86 87
208 1 86 87 88
209 1 87 88 91
210 1 87 88 169
211 1 91 88 169
212 1 8 89 90
213 1 8 89 94
214 1 90 89 94
215 1 85 90 89
216 1 85 90 91
217 1 89 90 91
218 1 88 91 90
219 1 88 91 92
220 1 90 91 92
221 1 91 92 95
222 1 91 92 173
223 1 95 92 173
224 1 12 93 98
225 1 12 93 94
226 1 94 93 98
227 1 89 94 93
228 1 89 94 95
229 1 93 94 95
230 1 92 95 94
231 1 92 95 96
232 1 94 95 96
233 1 95 96 99
234 1 95 96 177
235 1 99 96 177
236 1 16 97 102
237 1 16 97 98
238 1 98 97 102
239 1 93 98 97
240 1 93 98 99
241 1 97 98 99
242 1 96 99 98
243 1 96 99 100
244 1 98 99 100
245 1 99 100 103
246 1 99 100 181
247 1 103 100 181
248 1 20 101 106
249 1 20 101 102
250 1 102 101 106
251 1 97 102 101
252 1 97 102 103
253 1 101 102 103
254 1 100 103 102
255 1 100 103 104
256 1 102 103 104
257 1 103 104 107
258 1 103 104 185
259 1 107 104 185
260 1 24 105 106
261 1 24 105 110
262 1 106 105 110
263 1 101 106 105
264 1 101 106 107
265 1 105 106 107
266 1 104 107 106
267 1 104 107 108
268 1 106 107 108
269 1 107 108 111
270 1 107 108 189
271 1 111 108 189
272 1 28 109 110
273 1 28 109 114
274 1 110 109 114
275 1 105 110 109
276 1 105 110 111
277 1 109 110 111
278 1 108 111 110
279 1 108 111 112
280 1 110 111 112
281 1 111 112 115
282 1 111 112 193
283 1 115 112 193
284 1 32 113 118
285 1 32 113 114
286 1 114 113 118
287 1 109 114 113
288 1 109 114 115
289 1 113 114 115
290 1 112 115 114
291 1 112 115 116
292 1 114 115 116
293 1 115 116 119
294 1 115 116 197
295 1 119 116 197
296 1 36 117 122
297 1 36 117 118
298 1 118 117 122
299 1 113 118 117
300 1 113 118 119
301 1 117 118 119
302 1 116 119 118
303 1 116 119 120
304 1 118 119 120
305 1 119 120 123
306 1 119 120 201
307 1 123 120 201
308 1 40 121 126
309 1 40 121 122
310 1 122 121 126
311 1 117 122 121
312 1 117 122 123
313 1 121 122 123
314 1 120 123 122
315 1 120 123 124
316 1 122 123 124
317 1 123 124 127
318 1 123 124 205
319 1 127 124 205
320 1 44 125 126
321 1 44 125 130
322 1 126 125 130
323 1 121 126 125
324 1 121 126 127
325 1 125 126 127
326 1 124 127 126
327 1 124 127 128
328 1 126 127 128
329 1 127 128 131
330 1 127 128 209
331 1 131 128 209
332 1 48 129 130
333 1 48 129 134
334 1 130 129 134
335 1 125 130 129
336 1 125 130 131
337 1 129 130 131
338 1 128 131 130
339 1 128 131 132
340 1 130 131 132
341 1 131 132 135
342 1 131 132 213
343 1 135 132 213
344 1 52 133 138
345 1 52 133 134
346 1 134 133 138
347 1 129 134 133
348 1 129 134 135
349 1 133 134 135
350 1 132 135 134
351 1 132 135 136
352 1 134 135 136
353 1 135 136 139
354 1 135 136 217
355 1 139 136 217
356 1 56 137 142
357 1 56 137 138
358 1 138 137 142
359 1 133 138 137
360 1 133 138 139
361 1 137 138 139
362 1 136 139 138
363 1 136 139 140
364 1 138 139 140
365 1 139 140 143
366 1 139 140 221
367 1 143 140 221
368 1 60 141 146
369 1 60 141 142
370 1 142 141 146
371 1 137 142 141
372 1 137 142 143
373 1 141 142 143
374 1 140 143 142
375 1 140 143 144
376 1 142 143 144
377 1 143 144 147
378 1 143 144 225
379 1 147 144 225
380 1 64 145 146
381 1 64 145 150
382 1 146 145 150
383 1 141 146 145
384 1 141 146 147
385 1 145 146 147
386 1 144 147 146
387 1 144 147 148
388 1 146 147 148
389 1 147 148 151
390 1 147 148 229
391 1 151 148 229
392 1 68 149 150
393 1 68 149 154
394 1 150 149 154
395 1 145 150 149
396 1 145 150 151
397 1 149 150 151
398 1 148 151 150
399 1 148 151 152
400 1 150 151 152
401 1 151 152 155
402 1 151 152 233
403 1 155 152 233
404 1 72 153 158
405 1 72 153 154
406 1 154 153 158
407 1 149 154 153
408 1 149 154 155
409 1 153 154 155
410 1 152 155 154
411 1 152 155 156
412 1 154 155 156
413 1 155 156 159
414 1 155 156 237
415 1 159 156 237
416 1 76 157 162
417 1 76 157 158
418 1 158 157 162
419 1 153 158 157
420 1 153 158 159
421 1 157 158 159
422 1 156 159 158
423 1 156 159 160
424 1 158 159 160
425 1 159 160 163
426 1 159 160 241
427 1 163 160 241
428 1 80 161 166
429 1 80 161 162
430 1 162 161 166
431 1 157 162 161
432 1 157 162 163
433 1 161 162 163
434 1 160 163 162
435 1 160 163 164
436 1 162 163 164
437 1 163 164 167
438 1 163 164 245
439 1 167 164 245
440 1 84 165 166
441 1 161 166 165
442 1 161 166 167
443 1 165 166 167
444 1 164 167 166
445 1 164 167 168
446 1 166 167 168
447 1 167 168 249
448 1 88 169 170
449 1 88 169 174
450 1 170 169 174
451 1 169 170 171
452 1 170 171 172
453 1 171 172 175
454 1 171 172 253
455 1 175 172 253
456 1 92 173 174
457 1 92 173 178
458 1 174 173 178
459 1 169 174 173
460 1 169 174 175
461 1 173 174 175
462 1 172 175 174
463 1 172 175 176
464 1 174 175 176
465 1 175 176 179
466 1 175 176 257
467 1 179 176 257
468 1 96 177 182
469 1 96 177 178
470 1 178 177 182
471 1 173 178 177
472 1 173 178 179
473 1 177 178 179
474 1 176 179 178
475 1 176 179 180
476 1 178 179 180
477 1 179 180 183
478 1 179 180 261
479 1 183 180 261
480 1 100 181 186
481 1 100 181 182
482 1 182 181 186
483 1 177 182 181
484 1 177 182 183
485 1 181 182 183
486 1 180 183 182
487 1 180 183 184
488 1 182 183 184
489 1 183 184 187
490 1 183 184 265
491 1 187 184 265
492 1 104 185 190
493 1 104 185 186
494 1 186 185 190
495 1 181 186 185
496 1 181 186 187
497 1 185 186 187
498 1 184 187 186
499 1 184 187 188
500 1 186 187 188
501 1 187 188 191
502 1 187 188 269
503 1 191 188 269
504 1 108 189 190
505 1 108 189 194
506 1 190 189 194
507 1 185 190 189
508 1 185 190 191
509 1 189 190 191
510 1 188 191 190
511 1 188 191 192
512 1 190 191 192
513 1 191 192 195
514 1 191 192 273
515 1 195 192 273
516 1 112 193 194
517 1 112 193 198
518 1 194 193 198
519 1 189 194 193
520 1 189 194 195
521 1 193 194 195
522 1 192 195 194
523 1 192 195 196
524 1 194 195 196
525 1 195 196 199
526 1 195 196 277
527 1 199 196 277
528 1 116 197 202
529 1 116 197 198
530 1 198 197 202
531 1 193 198 197
532 1 193 198 199
533 1 197 198 199
534 1 196 199 198
535 1 196 199 200
536 1 198 199 200
537 1 199 200 203
538 1 199 200 281
539 1 203 200 281
540 1 120 201 206
541 1 120 201 202
542 1 202 201 206
543 1 197 202 201
544 1 197 202 203
545 1 201 202 203
546 1 200 203 202
547 1 200 203 204
548 1 202 203 204
549 1 203 204 207
550 1 203 204 285
551 1 207 204 285
552 1 124 205 210
553 1 124 205 206
554 1 206 205 210
555 1 201 206 205
556 1 201 206 207
557 1 205 206 207
558 1 204 207 206
559 1 204 207 208
560 1 206 207 208
561 1 207 208 211
562 1 207 208 289
563 1 211 208 289
564 1 128 209 210
565 1 128 209 214
566 1 210 209 214
567 1 205 210 209
568 1 205 210 211
569 1 209 210 211
570 1 208 211 210
571 1 208 211 212
572 1 210 211 212
573 1 211 212 215
574 1 211 212 293
575 1 215 212 293
576 1 132 213 214
577 1 132 213 218
578 1 214 213 218
579 1 209 214 213
580 1 209 214 215
581 1 213 214 215
582 1 212 215 214
583 1 212 215 216
584 1 214 215 216
585 1 215 216 219
586 1 215 216 297
587 1 219 216 297
588 1 136 217 222
589 1 136 217 218
590 1 218 217 222
591 1 213 218 217
592 1 213 218 219
593 1 217 218 219
594 1 216 219 218
595 1 216 219 220
596 1 218 219 220
597 1 219 220 223
598 1 219 220 301
599 1 223 220 301
600 1 140 221 226
601 1 140 221 222
602 1 222 221 226
603 1 217 222 221
604 1 217 222 223
605 1 221 222 223
606 1 220 223 222
607 1 220 223 224
608 1 222 223 224
609 1 223 224 227
610 1 223 224 305
611 1 227 224 305
612 1 144 225 230
613 1 144 225 226
614 1 226 225 230
615 1 221 226 225
616 1 221 226 227
617 1 225 226 227
618 1 224 227 226
619 1 224 227 228
620 1 226 227 228
621 1 227 228 231
622 1 227 228 309
623 1 231 228 309
624 1 148 229 230
625 1 148 229 234
626 1 230 229 234
627 1 225 230 229
628 1 225 230 231
629 1 229 230 231
630 1 228 231 230
631 1 228 231 232
632 1 230 231 232
633 1 231 232 235
634 1 231 232 313
635 1 235 232 313
636 1 152 233 234
637 1 152 233 238
638 1 234 233 238
639 1 229 234 233
640 1 229 234 235
641 1 233 234 235
642 1 232 235 234
643 1 232 235 236
644 1 234 235 236
645 1 235 236 239
646 1 235 236 317
647 1 239 236 317
648 1 156 237 242
649 1 156 237 238
650 1 238 237 242
651 1 233 238 237
652 1 233 238 239
653 1 237 238 239
654 1 236 239 238
655 1 236 239 240
656 1 238 239 240
657 1 239 240 243
658 1 239 240 321
659 1 243 240 321
660 1 160 241 246
661 1 160 241 242
662 1 242 241 246
663 1 237 242 241
664 1 237 242 243
665 1 241 242 243
666 1 240 243 242
667 1 240 243 244
668 1 242 243 244
669 1 243 244 247
670 1 243 244 325
671 1 247 244 325
672 1 164 245 250
673 1 164 245 246
674 1 246 245 250
675 1 241 246 245
676 1 241 246 247
677 1 245 246 247
678 1 244 247 246
679 1 244 247 248
680 1 246 247 248
681 1 247 248 251
682 1 247 248 329
683 1 251 248 329
684 1 168 249 250
685 1 245 250 249
686 1 245 250 251
687 1 249 250 251
688 1 248 251 250
689 1 248 251 252
690 1 250 251 252
691 1 251 252 333
692 1 172 253 254
693 1 172 253 258
694 1 254 253 258
695 1 253 254 255
696 1 254 255 256
697 1 255 256 259
698 1 255 256 337
699 1 259 256 337
700 1 176 257 258
701 1 176 257 262
702 1 258 257 262
703 1 253 258 257
704 1 253 258 259
705 1 257 258 259
706 1 256 259 258
707 1 256 259 260
708 1 258 259 260
709 1 259 260 263
710 1 259 260 341
711 1 263 260 341
712 1 180 261 266
713 1 180 261 262
714 1 262 261 266
715 1 257 262 261
716 1 257 262 263
717 1 261 262 263
718 1 260 263 262
719 1 260 263 264
720 1 262 263 264
721 1 263 264 267
722 1 263 264 345
723 1 267 264 345
724 1 184 265 270
725 1 184 265 266
726 1 266 265 270
727 1 261 266 265
728 1 261 266 267
729 1 265 266 267
730 1 264 267 266
731 1 264 267 268
732 1 266 267 268
733 1 267 268 271
734 1 267 268 349
735 1 271 268 349
736 1 188 269 274
737 1 188 269 270
738 1 270 269 274
739 1 265 270 269
740 1 265 270 271
741 1 269 270 271
742 1 268 271 270
743 1 268 271 272
744 1 270 271 272
745 1 271 272 275
746 1 271 272 353
747 1 275 272 353
748 1 192 273 274
749 1 192 273 278
750 1 274 273 278
751 1 269 274 273
752 1 269 274 275
753 1 273 274 275
754 1 272 275 274
755 1 272 275 276
756 1 274 275 276
757 1 275 276 279
758 1 275 276 357
759 1 279 276 357
760 1 196 277 278
761 1 196 277 282
762 1 278 277 282
763 1 273 278 277
764 1 273 278 279
765 1 277 278 279
766 1 276 279 278
767 1 276 279 280
768 1 278 279 280
769 1 279 280 283
770 1 279 280 361
771 1 283 280 361
772 1 200 281 286
773 1 200 281 282
774 1 282 281 286
775 1 277 282 281
776 1 277 282 283
777 1 281 282 283
778 1 280 283 282
779 1 280 283 284
780 1 282 283 284
781 1 283 284 287
782 1 283 284 365
783 1 287 284 365
784 1 204 285 286
785 1 204 285 290
786 1 286 285 290
787 1 281 286 285
788 1 281 286 287
789 1 285 286 287
790 1 284 287 286
791 1 284 287 288
792 1 286 287 288
793 1 287 288 291
794 1 287 288 369
795 1 291 288 369
796 1 208 289 294
797 1 208 289 290
798 1 290 289 294
799 1 285 290 289
800 1 285 290 291
801 1 289 290 291
802 1 288 291 290
803 1 288 291 292
804 1 290 291 292
805 1 291 292 295
806 1 291 292 373
807 1 295 292 373
808 1 212 293 294
809 1 212 293 298
810 1 294 293 298
811 1 289 294 293
812 1 289 294 295
813 1 293 294 295
814 1 292 295 294
815 1 292 295 296
816 1 294 295 296
817 1 295 296 299
818 1 295 296 377
819 1 299 296 377
820 1 216 297 298
821 1 216 297 302
822 1 298 297 302
823 1 293 298 297
824 1 293 298 299
825 1 297 298 299
826 1 296 299 298
827 1 296 299 300
828 1 298 299 300
829 1 299 300 303
830 1 299 300 381
831 1 303 300 381
832 1 220 301 306
833 1 220 301 302
834 1 302 301 306
835 1 297 302 301
836 1 297 302 303
837 1 301 302 303
838 1 300 303 302
839 1 300 303 304
840 1 302 303 304
841 1 303 304 307
842 1 303 304 385
843 1 307 304 385
844 1 224 305 310
845 1 224 305 306
846 1 306 305 310
847 1 301 306 305
848 1 301 306 307
849 1 305 306 307
850 1 304 307 306
851 1 304 307 308
852 1 306 307 308
853 1 307 308 311
854 1 307 308 389
855 1 311 308 389
856 1 228 309 314
857 1 228 309 310
858 1 310 309 314
859 1 305 310 309
860 1 305 310 311
861 1 309 310 311
862 1 308 311 310
863 1 308 311 312
864 1 310 311 312
865 1 311 312 315
866 1 311 312 393
867 1 315 312 393
868 1 232 313 314
869 1 232 313 318
870 1 314 313 318
871 1 309 314 313
872 1 309 314 315
873 1 313 314 315
874 1 312 315 314
875 1 312 315 316
876 1 314 315 316
877 1 315 316 319
878 1 315 316 397
879 1 319 316 397
880 1 236 317 318
881 1 236 317 322
882 1 318 317 322
883 1 313 318 317
884 1 313 318 319
885 1 317 318 319
886 1 316 319 318
887 1 316 319 320
888 1 318 319 320
889 1 319 320 323
890 1 319 320 401
891 1 323 320 401
892 1 240 321 326
893 1 240 321 322
894 1 322 321 326
895 1 317 322 321
896 1 317 322 323
897 1 321 322 323
898 1 320 323 322
899 1 320 323 324
900 1 322 323 324
901 1 323 324 327
902 1 323 324 405
903 1 327 324 405
904 1 244 325 330
905 1 244 325 326
906 1 326 325 330
907 1 321 326 325
908 1 321 326 327
909 1 325 326 327
910 1 324 327 326
911 1 324 327 328
912 1 326 327 328
913 1 327 328 331
914 1 327 328 409
915 1 331 328 409
916 1 248 329 334
917 1 248 329 330
918 1 330 329 334
919 1 325 330 329
920 1 325 330 331
921 1 329 330 331
922 1 328 331 330
923 1 328 331 332
924 1 330 331 332
925 1 331 332 335
926 1 331 332 413
927 1 335 332 413
928 1 252 333 334
929 1 329 334 333
930 1 329 334 335
931 1 333 334 335
932 1 332 335 334
933 1 332 335 336
934 1 334 335 336
935 1 335 336 417
936 1 256 337 338
937 1 256 337 342
938 1 338 337 342
939 1 337 338 339
940 1 338 339 340
941 1 339 340 343
942 1 339 340 421
943 1 343 340 421
944 1 260 341 342
945 1 260 341 346
946 1 342 341 346
947 1 337 342 341
948 1 337 342 343
949 1 341 342 343
950 1 340 343 342
951 1 340 343 344
952 1 342 343 344
953 1 343 344 347
954 1 343 344 425
955 1 347 344 425
956 1 264 345 350
957 1 264 345 346
958 1 346 345 350
959 1 341 346 345
960 1 341 346 347
961 1 345 346 347
962 1 344 347 346
963 1 344 347 348
964 1 346 347 348
965 1 347 348 351
966 1 347 348 429
967 1 351 348 429
968 1 268 349 354
969 1 268 349 350
970 1 350 349 354
971 1 345 350 349
972 1 345 350 351
973 1 349 350 351
974 1 348 351 350
975 1 348 351 352
976 1 350 351 352
977 1 351 352 355
978 1 351 352 433
979 1 355 352 433
980 1 272 353 358
981 1 272 353 354
982 1 354 353 358
983 1 349 354 353
984 1 349 354 355
985 1 353 354 355
986 1 352 355 354
987 1 352 355 356
988 1 354 355 356
989 1 355 356 359
990 1 355 356 437
991 1 359 356 437
992 1 276 357 358
993 1 276 357 362
994 1 358 357 362
995 1 353 358 357
996 1 353 358 359
997 1 357 358 359
998 1 356 359 358
999 1 356 359 360
1000 1 358 359 360
1001 1 359 360 363
1002 1 359 360 441
1003 1 363 360 441
1004 1 280 361 362
1005 1 280 361 366
1006 1 362 361 366
1007 1 357 362 361
1008 1 357 362 363
1009 1 361 362 363
1010 1 360 363 362
1011 1 360 363 364
1012 1 362 363 364
1013 1 363 364 367
1014 1 363 364 445
1015 1 367 364 445
1016 1 284 365 370
1017 1 284 365 366
1018 1 366 365 370
1019 1 361 366 365
1020 1 361 366 367
1021 1 365 366 367
1022 1 364 367 366
1023 1 364 367 368
1024 1 366 367 368
1025 1 367 368 371
1026 1 367 368 449
1027 1 371 368 449
1028 1 288 369 374
1029 1 288 369 370
1030 1 370 369 374
1031 1 365 370 369
1032 1 365 370 371
1033 1 369 370 371
1034 1 368 371 370
1035 1 368 371 372
1036 1 370 371 372
1037 1 371 372 375
1038 1 371 372 453
1039 1 375 372 453
1040 1 292 373 378
1041 1 292 373 374
1042 1 374 373 378
1043 1 369 374 373
1044 1 369 374 375
1045 1 373 374 375
1046 1 372 375 374
1047 1 372 375 376
1048 1 374 375 376
1049 1 375 376 379
1050 1 375 376 457
1051 1 379 376 457
1052 1 296 377 378
1053 1 296 377 382
1054 1 378 377 382
1055 1 373 378 377
1056 1 373 378 379
1057 1 377 378 379
1058 1 376 379 378
1059 1 376 379 380
1060 1 378 379 380
1061 1 379 380 383
1062 1 379 380 461
1063 1 383 380 461
1064 1 300 381 382
1065 1 300 381 386
1066 1 382 381 386
1067 1 377 382 381
1068 1 377 382 383
1069 1 381 382 383
1070 1 380 383 382
1071 1 380 383 384
1072 1 382 383 384
1073 1 383 384 387
1074 1 383 384 465
1075 1 387 384 465
1076 1 304 385 390
1077 1 304 385 386
1078 1 386 385 390
1079 1 381 386 385
1080 1 381 386 387
1081 1 385 386 387
1082 1 384 387 386
1083 1 384 387 388
1084 1 386 387 388
1085 1 387 388 391
1086 1 387 388 469
1087 1 391 388 469
1088 1 308 389 394
1089 1 308 389 390
1090 1 390 389 394
1091 1 385 390 389
1092 1 385 390 391
1093 1 389 390 391
1094 1 388 391 390
1095 1 388 391 392
1096 1 390 391 392
1097 1 391 392 395
1098 1 391 392 473
1099 1 395 392 473
1100 1 312 393 398
1101 1 312 393 394
1102 1 394 393 398
1103 1 389 394 393
1104 1 389 394 395
1105 1 393 394 395
1106 1 392 395 394
1107 1 392 395 396
1108 1 394 395 396
1109 1 395 396 399
1110 1 395 396 477
1111 1 399 396 477
1112 1 316 397 398
1113 1 316 397 402
1114 1 398 397 402
1115 1 393 398 397
1116 1 393 398 399
1117 1 397 398 399
1118 1 396 399 398
1119 1 396 399 400
1120 1 398 399 400
1121 1 399 400 403
1122 1 399 400 481
1123 1 403 400 481
1124 1 320 401 402
1125 1 320 401 406
1126 1 402 401 406
1127 1 397 402 401
1128 1 397 402 403
1129 1 401 402 403
1130 1 400 403 402
1131 1 400 403 404
1132 1 402 403 404
1133 1 403 404 407
1134 1 403 404 485
1135 1 407 404 485
1136 1 324 405 410
1137 1 324 405 406
1138 1 406 405 410
1139 1 401 406 405
1140 1 401 406 407
1141 1 405 406 407
1142 1 404 407 406
1143 1 404 407 408
1144 1 406 407 408
1145 1 407 408 411
1146 1 407 408 489
1147 1 411 408 489
1148 1 328 409 414
1149 1 328 409 410
1150 1 410 409 414
1151 1 405 410 409
1152 1 405 410 411
1153 1 409 410 411
1154 1 408 411 410
1155 1 408 411 412
1156 1 410 411 412
1157 1 411 412 415
1158 1 411 412 493
1159 1 415 412 493
1160 1 332 413 418
1161 1 332 413 414
1162 1 414 413 418
1163 1 409 414 413
1164 1 409 414 415
1165 1 413 414 415
1166 1 412 415 414
1167 1 412 415 416
1168 1 414 415 416
1169 1 415 416 419
1170 1 415 416 497
1171 1 419 416 497
1172 1 336 417 418
1173 1 413 418 417
1174 1 413 418 419
1175 1 417 418 419
1176 1 416 419 418
1177 1 416 419 420
1178 1 418 419 420
1179 1 419 420 501
1180 1 340 421 422
1181 1 340 421 426
1182 1 422 421 426
1183 1 421 422 423
1184 1 422 423 424
1185 1 423 424 427
1186 1 423 424 505
1187 1 427 424 505
1188 1 344 425 426
1189 1 344 425 430
1190 1 426 425 430
1191 1 421 426 425
1192 1 421 426 427
1193 1 425 426 427
1194 1 424 427 426
1195 1 424 427 428
1196 1 426 427 428
1197 1 427 428 431
1198 1 427 428 509
1199 1 431 428 509
1200 1 348 429 434
1201 1 348 429 430
1202 1 430 429 434
1203 1 425 430 429
1204 1 425 430 431
1205 1 429 430 431
1206 1 428 431 430
1207 1 428 431 432
1208 1 430 431 432
1209 1 431 432 435
1210 1 431 432 513
1211 1 435 432 513
1212 1 352 433 438
1213 1 352 433 434
1214 1 434 433 438
1215 1 429 434 433
1216 1 429 434 435
1217 1 433 434 435
1218 1 432 435 434
1219 1 432 435 436
1220 1 434 435 436
1221 1 435 436 439
1222 1 435 436 517
1223 1 439 436 517
1224 1 356 437 442
1225 1 356 437 438
1226 1 438 437 442
1227 1 433 438 437
1228 1 433 438 439
1229 1 437 438 439
1230 1 436 439 438
1231 1 436 439 440
1232 1 438 439 440
1233 1 439 440 443
1234 1 439 440 521
1235 1 443 440 521
1236 1 360 441 442
1237 1 360 441 446
1238 1 442 441 446
1239 1 437 442 441
1240 1 437 442 443
1241 1 441 442 443
1242 1 440 443 442
1243 1 440 443 444
1244 1 442 443 444
1245 1 443 444 447
1246 1 443 444 525
1247 1 447 444 525
1248 1 364 445 446
1249 1 364 445 450
1250 1 446 445 450
1251 1 441 446 445
1252 1 441 446 447
1253 1 445 446 447
1254 1 444 447 446
1255 1 444 447 448
1256 1 446 447 448
1257 1 447 448 451
1258 1 447 448 529
1259 1 451 448 529
1260 1 368 449 454
1261 1 368 449 450
1262 1 450 449 454
1263 1 445 450 449
1264 1 445 450 451
1265 1 449 450 451
1266 1 448 451 450
1267 1 448 451 452
1268 1 450 451 452
1269 1 451 452 455
1270 1 451 452 533
1271 1 455 452 533
1272 1 372 453 458
1273 1 372 453 454
1274 1 454 453 458
1275 1 449 454 453
1276 1 449 454 455
1277 1 453 454 455
1278 1 452 455 454
1279 1 452 455 456
1280 1 454 455 456
1281 1 455 456 459
1282 1 455 456 537
1283 1 459 456 537
1284 1 376 457 462
1285 1 376 457 458
1286 1 458 457 462
1287 1 453 458 457
1288 1 453 458 459
1289 1 457 458 459
1290 1 456 459 458
1291 1 456 459 460
1292 1 458 459 460
1293 1 459 460 463
1294 1 459 460 541
1295 1 463 460 541
1296 1 380 461 462
1297 1 380 461 466
1298 1 462 461 466
1299 1 457 462 461
1300 1 457 462 463
1301 1 461 462 463
1302 1 460 463 462
1303 1 460 463 464
1304 1 462 463 464
1305 1 463 464 467
1306 1 463 464 545
1307 1 467 464 545
1308 1 384 465 466
1309 1 384 465 470
1310 1 466 465 470
1311 1 461 466 465
1312 1 461 466 467
1313 1 465 466 467
1314 1 464 467 466
1315 1 464 467 468
1316 1 466 467 468
1317 1 467 468 471
1318 1 467 468 549
1319 1 471 468 549
1320 1 388 469 474
1321 1 388 469 470
1322 1 470 469 474
1323 1 465 470 469
1324 1 465 470 471
1325 1 469 470 471
1326 1 468 471 470
1327 1 468 471 472
1328 1 470 471 472
1329 1 471 472 475
1330 1 471 472 553
1331 1 475 472 553
1332 1 392 473 478
1333 1 392 473 474
1334 1 474 473 478
1335 1 469 474 473
1336 1 469 474 475
1337 1 473 474 475
1338 1 472 475 474
1339 1 472 475 476
1340 1 474 475 476
1341 1 475 476 479
1342 1 475 476 557
1343 1 479 476 557
1344 1 396 477 482
1345 1 396 477 478
1346 1 478 477 482
1347 1 473 478 477
1348 1 473 478 479
1349 1 477 478 479
1350 1 476 479 478
1351 1 476 479 480
1352 1 478 479 480
1353 1 479 480 483
1354 1 479 480 561
1355 1 483 480 561
1356 1 400 481 482
1357 1 400 481 486
1358 1 482 481 486
1359 1 477 482 481
1360 1 477 482 483
1361 1 481 482 483
1362 1 480 483 482
1363 1 480 483 484
1364 1 482 483 484
1365 1 483 484 487
1366 1 483 484 565
1367 1 487 484 565
1368 1 404 485 486
1369 1 404 485 490
1370 1 486 485 490
1371 1 481 486 485
1372 1 481 486 487
1373 1 485 486 487
1374 1 484 487 486
1375 1 484 487 488
1376 1 486 487 488
1377 1 487 488 491
1378 1 487 488 569
1379 1 491 488 569
1380 1 408 489 494
1381 1 408 489 490
1382 1 490 489 494
1383 1 485 490 489
1384 1 485 490 491
1385 1 489 490 491
1386 1 488 491 490
1387 1 488 491 492
1388 1 490 491 492
1389 1 491 492 495
1390 1 491 492 573
1391 1 495 492 573
1392 1 412 493 498
1393 1 412 493 494
1394 1 494 493 498
1395 1 489 494 493
1396 1 489 494 495
1397 1 493 494 495
1398 1 492 495 494
1399 1 492 495 496
1400 1 494 495 496
1401 1 495 496 499
1402 1 495 496 577
1403 1 499 496 577
1404 1 416 497 502
1405 1 416 497 498
1406 1 498 497 502
1407 1 493 498 497
1408 1 493 498 499
1409 1 497 498 499
1410 1 496 499 498
1411 1 496 499 500
1412 1 498 499 500
1413 1 499 500 503
1414 1 499 500 581
1415 1 503 500 581
1416 1 420 501 502
1417 1 497 502 501
1418 1 497 502 503
1419 1 501 502 503
1420 1 500 503 502
1421 1 500 503 504
1422 1 502 503 504
1423 1 503 504 585
1424 1 424 505 506
1425 1 424 505 510
1426 1 506 505 510
1427 1 505 506 507
1428 1 506 507 508
1429 1 507 508 511
1430 1 507 508 589
1431 1 511 508 589
1432 1 428 509 510
1433 1 428 509 514
1434 1 510 509 514
1435 1 505 510 509
1436 1 505 510 511
1437 1 509 510 511
1438 1 508 511 510
1439 1 508 511 512
1440 1 510 511 512
1441 1 511 512 515
1442 1 511 512 593
1443 1 515 512 593
1444 1 432 513 518
1445 1 432 513 514
1446 1 514 513 518
1447 1 509 514 513
1448 1 509 514 515
1449 1 513 514 515
1450 1 512 515 514
1451 1 512 515 516
1452 1 514 515 516
1453 1 515 516 519
1454 1 515 516 597
1455 1 519 516 597
1456 1 436 517 522
1457 1 436 517 518
1458 1 518 517 522
1459 1 513 518 517
1460 1 513 518 519
1461 1 517 518 519
1462 1 516 519 518
1463 1 516 519 520
1464 1 518 519 520
1465 1 519 520 523
1466 1 519 520 601
1467 1 523 520 601
1468 1 440 521 526
1469 1 440 521 522
1470 1 522 521 526
1471 1 517 522 521
1472 1 517 522 523
1473 1 521 522 523
1474 1 520 523 522
1475 1 520 523 524
1476 1 522 523 524
1477 1 523 524 527
1478 1 523 524 605
1479 1 527 524 605
1480 1 444 525 526
1481 1 444 525 530
1482 1 526 525 530
1483 1 521 526 525
1484 1 521 526 527
1485 1 525 526 527
1486 1 524 527 526
1487 1 524 527 528
1488 1 526 527 528
1489 1 527 528 531
1490 1 527 528 609
1491 1 531 528 609
1492 1 448 529 530
1493 1 448 529 534
1494 1 530 529 534
1495 1 525 530 529
1496 1 525 530 531
1497 1 529 530 531
1498 1 528 531 530
1499 1 528 531 532
1500 1 530 531 532
1501 1 531 532 535
1502 1 531 532 613
1503 1 535 532 613
1504 1 452 533 538
1505 1 452 533 534
1506 1 534 533 538
1507 1 529 534 533
1508 1 529 534 535
1509 1 533 534 535
1510 1 532 535 534
1511 1 532 535 536
1512 1 534 535 536
1513 1 535 536 539
1514 1 535 536 617
1515 1 539 536 617
1516 1 456 537 542
1517 1 456 537 538
1518 1 538 537 542
1519 1 533 538 537
1520 1 533 538 539
1521 1 537 538 539
1522 1 536 539 538
1523 1 536 539 540
1524 1 538 539 540
1525 1 539 540 543
1526 1 539 540 621
1527 1 543 540 621
1528 1 460 541 546
1529 1 460 541 542
1530 1 542 541 546
1531 1 537 542 541
1532 1 537 542 543
1533 1 541 542 543
1534 1 540 543 542
1535 1 540 543 544
1536 1 542 543 544
1537 1 543 544 547
1538 1 543 544 625
1539 1 547 544 625
1540 1 464 545 546
1541 1 464 545 550
1542 1 546 545 550
1543 1 541 546 545
1544 1 541 546 547
1545 1 545 546 547
1546 1 544 547 546
1547 1 544 547 548
1548 1 546 547 548
1549 1 547 548 551
1550 1 547 548 629
1551 1 551 548 629
1552 1 468 549 550
1553 1 468 549 554
1554 1 550 549 554
1555 1 545 550 549
1556 1 545 550 551
1557 1 549 550 551
1558 1 548 551 550
1559 1 548 551 552
1560 1 550 551 552
1561 1 551 552 555
1562 1 551 552 633
1563 1 555 552 633
1564 1 472 553 558
1565 1 472 553 554
1566 1 554 553 558
1567 1 549 554 553
1568 1 549 554 555
1569 1 553 554 555
1570 1 552 555 554
1571 1 552 555 556
1572 1 554 555 556
1573 1 555 556 559
1574 1 555 556 637
1575 1 559 556 637
1576 1 476 557 562
1577 1 476 557 558
1578 1 558 557 562
1579 1 553 558 557
1580 1 553 558 559
1581 1 557 558 559
1582 1 556 559 558
1583 1 556 559 560
1584 1 558 559 560
1585 1 559 560 563
1586 1 559 560 641
1587 1 563 560 641
1588 1 480 561 566
1589 1 480 561 562
1590 1 562 561 566
1591 1 557 562 561
1592 1 557 562 563
1593 1 561 562 563
1594 1 560 563 562
1595 1 560 563 564
1596 1 562 563 564
1597 1 563 564 567
1598 1 563 564 645
1599 1 567 564 645
1600 1 484 565 566
1601 1 484 565 570
1602 1 566 565 570
1603 1 561 566 565
1604 1 561 566 567
1605 1 565 566 567
1606 1 564 567 566
1607 1 564 567 568
1608 1 566 567 568
1609 1 567 568 571
1610 1 567 568 649
1611 1 571 568 649
1612 1 488 569 570
1613 1 488 569 574
1614 1 570 569 574
1615 1 565 570 569
1616 1 565 570 571
1617 1 569 570 571
1618 1 568 571 570
1619 1 568 571 572
1620 1 570 571 572
1621 1 571 572 575
1622 1 571 572 653
1623 1 575 572 653
1624 1 492 573 578
1625 1 492 573 574
1626 1 574 573 578
1627 1 569 574 573
1628 1 569 574 575
1629 1 573 574 575
1630 1 572 575 574
1631 1 572 575 576
1632 1 574 575 576
1633 1 575 576 579
1634 1 575 576 657
1635 1 579 576 657
1636 1 496 577 582
1637 1 496 577 578
1638 1 578 577 582
1639 1 573 578 577
1640 1 573 578 579
1641 1 577 578 579
1642 1 576 579 578
1643 1 576 579 580
1644 1 578 579 580
1645 1 579 580 583
1646 1 579 580 661
1647 1 583 580 661
1648 1 500 581 586
1649 1 500 581 582
1650 1 582 581 586
1651 1 577 582 581
1652 1 577 582 583
1653 1 581 582 583
1654 1 580 583 582
1655 1 580 583 584
1656 1 582 583 584
1657 1 583 584 587
1658 1 583 584 665
1659 1 587 584 665
1660 1 504 585 586
1661 1 581 586 585
1662 1 581 586 587
1663 1 585 586 587
1664 1 584 587 586
1665 1 584 587 588
1666 1 586 587 588
1667 1 587 588 669
1668 1 508 589 590
1669 1 508 589 594
1670 1 590 589 594
1671 1 589 590 591
1672 1 590 591 592
1673 1 591 592 595
1674 1 591 592 673
1675 1 595 592 673
1676 1 512 593 594
1677 1 512 593 598
1678 1 594 593 598
1679 1 589 594 593
1680 1 589 594 595
1681 1 593 594 595
1682 1 592 595 594
1683 1 592 595 596
1684 1 594 595 596
1685 1 595 596 599
1686 1 595 596 677
1687 1 599 596 677
1688 1 516 597 602
1689 1 516 597 598
1690 1 598 597 602
1691 1 593 598 597
1692 1 593 598 599
1693 1 597 598 599
1694 1 596 599 598
1695 1 596 599 600
1696 1 598 599 600
1697 1 599 600 603
1698 1 599 600 681
1699 1 603 600 681
1700 1 520 601 606
1701 1 520 601 602
1702 1 602 601 606
1703 1 597 602 601
1704 1 597 602 603
1705 1 601 602 603
1706 1 600 603 602
1707 1 600 603 604
1708 1 602 603 604
1709 1 603 604 607
1710 1 603 604 685
1711 1 607 604 685
1712 1 524 605 610
1713 1 524 605 606
1714 1 606 605 610
1715 1 601 606 605
1716 1 601 606 607
1717 1 605 606 607
1718 1 604 607 606
1719 1 604 607 608
1720 1 606 607 608
1721 1 607 608 611
1722 1 607 608 689
1723 1 611 608 689
1724 1 528 609 610
1725 1 528 609 614
1726 1 610 609 614
1727 1 605 610 609
1728 1 605 610 611
1729 1 609 610 611
1730 1 608 611 610
1731 1 608 611 612
1732 1 610 611 612
1733 1 611 612 615
1734 1 611 612 693
1735 1 615 612 693
1736 1 532 613 614
1737 1 532 613 618
1738 1 614 613 618
1739 1 609 614 613
1740 1 609 614 615
1741 1 613 614 615
1742 1 612 615 614
1743 1 612 615 616
1744 1 614 615 616
1745 1 615 616 619
1746 1 615 616 697
1747 1 619 616 697
1748 1 536 617 622
1749 1 536 617 618
1750 1 618 617 622
1751 1 613 618 617
1752 1 613 618 619
1753 1 617 618 619
1754 1 616 619 618
1755 1 616 619 620
1756 1 618 619 620
1757 1 619 620 623
1758 1 619 620 701
1759 1 623 620 701
1760 1 540 621 626
1761 1 540 621 622
1762 1 622 621 626
1763 1 617 622 621
1764 1 617 622 623
1765 1 621 622 623
1766 1 620 623 622
1767 1 620 623 624
1768 1 622 623 624
1769 1 623 624 627
1770 1 623 624 705
1771 1 627 624 705
1772 1 544 625 630
1773 1 544 625 626
1774 1 626 625 630
1775 1 621 626 625
1776 1 621 626 627
1777 1 625 626 627
1778 1 624 627 626
1779 1 624 627 628
1780 1 626 627 628
1781 1 627 628 631
1782 1 627 628 709
1783 1 631 628 709
1784 1 548 629 630
1785 1 548 629 634
1786 1 630 629 634
1787 1 625 630 629
1788 1 625 630 631
1789 1 629 630 631
1790 1 628 631 630
1791 1 628 631 632
1792 1 630 631 632
1793 1 631 632 635
1794 1 631 632 713
1795 1 635 632 713
1796 1 552 633 634
1797 1 552 633 638
1798 1 634 633 638
1799 1 629 634 633
1800 1 629 634 635
1801 1 633 634 635
1802 1 632 635 634
1803 1 632 635 636
1804 1 634 635 636
1805 1 635 636 639
1806 1 635 636 717
1807 1 639 636 717
1808 1 556 637 642
1809 1 556 637 638
1810 1 638 637 642
1811 1 633 638 637
1812 1 633 638 639
1813 1 637 638 639
1814 1 636 639 638
1815 1 636 639 640
1816 1 638 639 640
1817 1 639 640 643
1818 1 639 640 721
1819 1 643 640 721
1820 1 560 641 646
1821 1 560 641 642
1822 1 642 641 646
1823 1 637 642 641
1824 1 637 642 643
1825 1 641 642 643
1826 1 640 643 642
1827 1 640 643 644
1828 1 642 643 644
1829 1 643 644 647
1830 1 643 644 725
1831 1 647 644 725
1832 1 564 645 650
1833 1 564 645 646
1834 1 646 645 650
1835 1 641 646 645
1836 1 641 646 647
1837 1 645 646 647
1838 1 644 647 646
1839 1 644 647 648
1840 1 646 647 648
1841 1 647 648 651
1842 1 647 648 729
1843 1 651 648 729
1844 1 568 649 650
1845 1 568 649 654
1846 1 650 649 654
1847 1 645 650 649
1848 1 645 650 651
1849 1 649 650 651
1850 1 648 651 650
1851 1 648 651 652
1852 1 650 651 652
1853 1 651 652 655
1854 1 651 652 733
1855 1 655 652 733
1856 1 572 653 654
1857 1 572 653 658
1858 1 654 653 658
1859 1 649 654 653
1860 1 649 654 655
1861 1 653 654 655
1862 1 652 655 654
1863 1 652 655 656
1864 1 654 655 656
1865 1 655 656 659
1866 1 655 656 737
1867 1 659 656 737
1868 1 576 657 662
1869 1 576 657 658
1870 1 658 657 662
1871 1 653 658 657
1872 1 653 658 659
1873 1 657 658 659
1874 1 656 659 658
1875 1 656 659 660
1876 1 658 659 660
1877 1 659 660 663
1878 1 659 660 741
1879 1 663 660 741
1880 1 580 661 666
1881 1 580 661 662
1882 1 662 661 666
1883 1 657 662 661
1884 1 657 662 663
1885 1 661 662 663
1886 1 660 663 662
1887 1 660 663 664
1888 1 662 663 664
1889 1 663 664 667
1890 1 663 664 745
1891 1 667 664 745
1892 1 584 665 670
1893 1 584 665 666
1894 1 666 665 670
1895 1 661 666 665
1896 1 661 666 667
1897 1 665 666 667
1898 1 664 667 666
1899 1 664 667 668
1900 1 666 667 668
1901 1 667 668 671
1902 1 667 668 749
1903 1 671 668 749
1904 1 588 669 670
1905 1 665 670 669
1906 1 665 670 671
1907 1 669 670 671
1908 1 668 671 670
1909 1 668 671 672
1910 1 670 671 672
1911 1 671 672 753
1912 1 592 673 674
1913 1 592 673 678
1914 1 674 673 678
1915 1 673 674 675
1916 1 674 675 676
1917 1 675 676 757
1918 1 675 676 679
1919 1 679 676 757
1920 1 596 677 678
1921 1 596 677 682
1922 1 678 677 682
1923 1 673 678 677
1924 1 673 678 679
1925 1 677 678 679
1926 1 676 679 678
1927 1 676 679 680
1928 1 678 679 680
1929 1 679 680 761
1930 1 679 680 683
1931 1 683 680 761
1932 1 600 681 686
1933 1 600 681 682
1934 1 682 681 686
1935 1 677 682 681
1936 1 677 682 683
1937 1 681 682 683
1938 1 680 683 682
1939 1 680 683 684
1940 1 682 683 684
1941 1 683 684 687
1942 1 683 684 765
1943 1 687 684 765
1944 1 604 685 690
1945 1 604 685 686
1946 1 686 685 690
1947 1 681 686 685
1948 1 681 686 687
1949 1 685 686 687
1950 1 684 687 686
1951 1 684 687 688
1952 1 686 687 688
1953 1 687 688 691
1954 1 687 688 769
1955 1 691 688 769
1956 1 608 689 694
1957 1 608 689 690
1958 1 690 689 694
1959 1 685 690 689
1960 1 685 690 691
1961 1 689 690 691
1962 1 688 691 690
1963 1 688 691 692
1964 1 690 691 692
1965 1 691 692 773
1966 1 691 692 695
1967 1 695 692 773
1968 1 612 693 694
1969 1 612 693 698
1970 1 694 693 698
1971 1 689 694 693
1972 1 689 694 695
1973 1 693 694 695
1974 1 692 695 694
1975 1 692 695 696
1976 1 694 695 696
1977 1 695 696 777
1978 1 695 696 699
1979 1 699 696 777
1980 1 616 697 698
1981 1 616 697 702
1982 1 698 697 702
1983 1 693 698 697
1984 1 693 698 699
1985 1 697 698 699
1986 1 696 699 698
1987 1 696 699 700
1988 1 698 699 700
1989 1 699 700 781
1990 1 699 700 703
1991 1 703 700 781
1992 1 620 701 706
1993 1 620 701 702
1994 1 702 701 706
1995 1 697 702 701
1996 1 697 702 703
1997 1 701 702 703
1998 1 700 703 702
1999 1 700 703 704
2000 1 702 703 704
2001 1 703 704 707
2002 1 703 704 785
2003 1 707 704 785
2004 1 624 705 710
2005 1 624 705 706
2006 1 706 705 710
2007 1 701 706 705
2008 1 701 706 707
2009 1 705 706 707
2010 1 704 707 706
2011 1 704 707 708
2012 1 706 707 708
2013 1 707 708 711
2014 1 707 708 789
2015 1 711 708 789
2016 1 628 709 714
2017 1 628 709 710
2018 1 710 709 714
2019 1 705 710 709
2020 1 705 710 711
2021 1 709 710 711
2022 1 708 711 710
2023 1 708 711 712
2024 1 710 711 712
2025 1 711 712 793
2026 1 711 712 715
2027 1 715 712 793
2028 1 632 713 714
2029 1 632 713 718
2030 1 714 713 718
2031 1 709 714 713
2032 1 709 714 715
2033 1 713 714 715
2034 1 712 715 714
2035 1 712 715 716
2036 1 714 715 716
2037 1 715 716 797
2038 1 715 716 719
2039 1 719 716 797
2040 1 636 717 718
2041 1 636 717 722
2042 1 718 717 722
2043 1 713 718 717
2044 1 713 718 719
2045 1 717 718 719
2046 1 716 719 718
2047 1 716 719 720
2048 1 718 719 720
2049 1 719 720 801
2050 1 719 720 723
2051 1 723 720 801
2052 1 640 721 726
2053 1 640 721 722
2054 1 722 721 726
2055 1 717 722 721
2056 1 717 722 723
2057 1 721 722 723
2058 1 720 723 722
2059 1 720 723 724
2060 1 722 723 724
2061 1 723 724 727
2062 1 723 724 805
2063 1 727 724 805
2064 1 644 725 726
2065 1 644 725 730
2066 1 726 725 730
2067 1 721 726 725
2068 1 721 726 727
2069 1 725 726 727
2070 1 724 727 726
2071 1 724 727 728
2072 1 726 727 728
2073 1 727 728 731
2074 1 727 728 809
2075 1 731 728 809
2076 1 648 729 730
2077 1 648 729 734
2078 1 730 729 734
2079 1 725 730 729
2080 1 725 730 731
2081 1 729 730 731
2082 1 728 731 730
2083 1 728 731 732
2084 1 730 731 732
2085 1 731 732 813
2086 1 731 732 735
2087 1 735 732 813
2088 1 652 733 734
2089 1 652 733 738
2090 1 734 733 738
2091 1 729 734 733
2092 1 729 734 735
2093 1 733 734 735
2094 1 732 735 734
2095 1 732 735 736
2096 1 734 735 736
2097 1 735 736 817
2098 1 735 736 739
2099 1 739 736 817
2100 1 656 737 738
2101 1 656 737 742
2102 1 738 737 742
2103 1 733 738 737
2104 1 733 738 739
2105 1 737 738 739
2106 1 736 739 738
2107 1 736 739 740
2108 1 738 739 740
2109 1 739 740 821
2110 1 739 740 743
2111 1 743 740 821
2112 1 660 741 742
2113 1 660 741 746
2114 1 742 741 746
2115 1 737 742 741
2116 1 737 742 743
2117 1 741 742 743
2118 1 740 743 742
2119 1 740 743 744
2120 1 742 743 744
2121 1 743 744 747
2122 1 743 744 825
2123 1 747 744 825
2124 1 664 745 746
2125 1 664 745 750
2126 1 746 745 750
2127 1 741 746 745
2128 1 741 746 747
2129 1 745 746 747
2130 1 744 747 746
2131 1 744 747 748
2132 1 746 747 748
2133 1 747 748 751
2134 1 747 748 829
2135 1 751 748 829
2136 1 668 749 750
2137 1 668 749 754
2138 1 750 749 754
2139 1 745 750 749
2140 1 745 750 751
2141 1 749 750 751
2142 1 748 751 750
2143 1 748 751 752
2144 1 750 751 752
2145 1 751 752 833
2146 1 751 752 755
2147 1 755 752 833
2148 1 672 753 754
2149 1 749 754 753
2150 1 749 754 755
2151 1 753 754 755
2152 1 752 755 754
2153 1 752 755 756
2154 1 754 755 756
2155 1 755 756 837
2156 1 676 757 758
2157 1 676 757 762
2158 1 758 757 762
2159 1 757 758 759
2160 1 758 759 760
2161 1 759 760 841
2162 1 759 760 763
2163 1 763 760 841
2164 1 680 761 762
2165 1 680 761 766
2166 1 762 761 766
2167 1 757 762 761
2168 1 757 762 763
2169 1 761 762 763
2170 1 760 763 762
2171 1 760 763 764
2172 1 762 763 764
2173 1 763 764 845
2174 1 763 764 767
2175 1 767 764 845
2176 1 684 765 766
2177 1 684 765 770
2178 1 766 765 770
2179 1 761 766 765
2180 1 761 766 767
2181 1 765 766 767
2182 1 764 767 766
2183 1 764 767 768
2184 1 766 767 768
2185 1 767 768 771
2186 1 767 768 849
2187 1 771 768 849
2188 1 688 769 770
2189 1 688 769 774
2190 1 770 769 774
2191 1 765 770 769
2192 1 765 770 771
2193 1 769 770 771
2194 1 768 771 770
2195 1 768 771 772
2196 1 770 771 772
2197 1 771 772 775
2198 1 771 772 853
2199 1 775 772 853
2200 1 692 773 774
2201 1 692 773 778
2202 1 774 773 778
2203 1 769 774 773
2204 1 769 774 775
2205 1 773 774 775
2206 1 772 775 774
2207 1 772 775 776
2208 1 774 775 776
2209 1 775 776 857
2210 1 775 776 779
2211 1 779 776 857
2212 1 696 777 778
2213 1 696 777 782
2214 1 778 777 782
2215 1 773 778 777
2216 1 773 778 779
2217 1 777 778 779
2218 1 776 779 778
2219 1 776 779 780
2220 1 778 779 780
2221 1 779 780 861
2222 1 779 780 783
2223 1 783 780 861
2224 1 700 781 782
2225 1 700 781 786
2226 1 782 781 786
2227 1 777 782 781
2228 1 777 782 783
2229 1 781 782 783
2230 1 780 783 782
2231 1 780 783 784
2232 1 782 783 784
2233 1 783 784 865
2234 1 783 784 787
2235 1 787 784 865
2236 1 704 785 790
2237 1 704 785 786
2238 1 786 785 790
2239 1 781 786 785
2240 1 781 786 787
2241 1 785 786 787
2242 1 784 787 786
2243 1 784 787 788
2244 1 786 787 788
2245 1 787 788 869
2246 1 787 788 791
2247 1 791 788 869
2248 1 708 789 794
2249 1 708 789 790
2250 1 790 789 794
2251 1 785 790 789
2252 1 785 790 791
2253 1 789 790 791
2254 1 788 791 790
2255 1 788 791 792
2256 1 790 791 792
2257 1 791 792 873
2258 1 791 792 795
2259 1 795 792 873
2260 1 712 793 798
2261 1 712 793 794
2262 1 794 793 798
2263 1 789 794 793
2264 1 789 794 795
2265 1 793 794 795
2266 1 792 795 794
2267 1 792 795 796
2268 1 794 795 796
2269 1 795 796 877
2270 1 795 796 799
2271 1 799 796 877
2272 1 716 797 798
2273 1 716 797 802
2274 1 798 797 802
2275 1 793 798 797
2276 1 793 798 799
2277 1 797 798 799
2278 1 796 799 798
2279 1 796 799 800
2280 1 798 799 800
2281 1 799 800 881
2282 1 799 800 803
2283 1 803 800 881
2284 1 720 801 802
2285 1 720 801 806
2286 1 802 801 806
2287 1 797 802 801
2288 1 797 802 803
2289 1 801 802 803
2290 1 800 803 802
2291 1 800 803 804
2292 1 802 803 804
2293 1 803 804 885
2294 1 803 804 807
2295 1 807 804 885
2296 1 724 805 810
2297 1 724 805 806
2298 1 806 805 810
2299 1 801 806 805
2300 1 801 806 807
2301 1 805 806 807
2302 1 804 807 806
2303 1 804 807 808
2304 1 806 807 808
2305 1 807 808 811
2306 1 807 808 889
2307 1 811 808 889
2308 1 728 809 814
2309 1 728 809 810
2310 1 810 809 814
2311 1 805 810 809
2312 1 805 810 811
2313 1 809 810 811
2314 1 808 811 810
2315 1 808 811 812
2316 1 810 811 812
2317 1 811 812 815
2318 1 811 812 893
2319 1 815 812 893
2320 1 732 813 818
2321 1 732 813 814
2322 1 814 813 818
2323 1 809 814 813
2324 1 809 814 815
2325 1 813 814 815
2326 1 812 815 814
2327 1 812 815 816
2328 1 814 815 816
2329 1 815 816 897
2330 1 815 816 819
2331 1 819 816 897
2332 1 736 817 818
2333 1 736 817 822
2334 1 818 817 822
2335 1 813 818 817
2336 1 813 818 819
2337 1 817 818 819
2338 1 816 819 818
2339 1 816 819 820
2340 1 818 819 820
2341 1 819 820 901
2342 1 819 820 823
2343 1 823 820 901
2344 1 740 821 822
2345 1 740 821 826
2346 1 822 821 826
2347 1 817 822 821
2348 1 817 822 823
2349 1 821 822 823
2350 1 820 823 822
2351 1 820 823 824
2352 1 822 823 824
2353 1 823 824 905
2354 1 823 824 827
2355 1 827 824 905
2356 1 744 825 830
2357 1 744 825 826
2358 1 826 825 830
2359 1 821 826 825
2360 1 821 826 827
2361 1 825 826 827
2362 1 824 827 826
2363 1 824 827 828
2364 1 826 827 828
2365 1 827 828 831
2366 1 827 828 909
2367 1 831 828 909
2368 1 748 829 834
2369 1 748 829 830
2370 1 830 829 834
2371 1 825 830 829
2372 1 825 830 831
2373 1 829 830 831
2374 1 828 831 830
2375 1 828 831 832
2376 1 830 831 832
2377 1 831 832 835
2378 1 831 832 913
2379 1 835 832 913
2380 1 752 833 838
2381 1 752 833 834
2382 1 834 833 838
2383 1 829 834 833
2384 1 829 834 835
2385 1 833 834 835
2386 1 832 835 834
2387 1 832 835 836
2388 1 834 835 836
2389 1 835 836 917
2390 1 835 836 839
2391 1 839 836 917
2392 1 756 837 838
2393 1 833 838 837
2394 1 833 838 839
2395 1 837 838 839
2396 1 836 839 838
2397 1 836 839 840
2398 1 838 839 840
2399 1 839 840 921
2400 1 760 841 842
2401 1 760 841 846
2402 1 842 841 846
2403 1 841 842 843
2404 1 842 843 844
2405 1 843 844 925
2406 1 843 844 847
2407 1 847 844 925
2408 1 764 845 846
2409 1 764 845 850
2410 1 846 845 850
2411 1 841 846 845
2412 1 841 846 847
2413 1 845 846 847
2414 1 844 847 846
2415 1 844 847 848
2416 1 846 847 848
2417 1 847 848 929
2418 1 847 848 851
2419 1 851 848 929
2420 1 768 849 854
2421 1 768 849 850
2422 1 850 849 854
2423 1 845 850 849
2424 1 845 850 851
2425 1 849 850 851
2426 1 848 851 850
2427 1 848 851 852
2428 1 850 851 852
2429 1 851 852 855
2430 1 851 852 933
2431 1 855 852 933
2432 1 772 853 858
2433 1 772 853 854
2434 1 854 853 858
2435 1 849 854 853
2436 1 849 854 855
2437 1 853 854 855
2438 1 852 855 854
2439 1 852 855 856
2440 1 854 855 856
2441 1 855 856 859
2442 1 855 856 937
2443 1 859 856 937
2444 1 776 857 862
2445 1 776 857 858
2446 1 858 857 862
2447 1 853 858 857
2448 1 853 858 859
2449 1 857 858 859
2450 1 856 859 858
2451 1 856 859 860
2452 1 858 859 860
2453 1 859 860 941
2454 1 859 860 863
2455 1 863 860 941
2456 1 780 861 862
2457 1 780 861 866
2458 1 862 861 866
2459 1 857 862 861
2460 1 857 862 863
2461 1 861 862 863
2462 1 860 863 862
2463 1 860 863 864
2464 1 862 863 864
2465 1 863 864 945
2466 1 863 864 867
2467 1 867 864 945
2468 1 784 865 866
2469 1 784 865 870
2470 1 866 865 870
2471 1 861 866 865
2472 1 861 866 867
2473 1 865 866 867
2474 1 864 867 866
2475 1 864 867 868
2476 1 866 867 868
2477 1 867 868 949
2478 1 867 868 871
2479 1 871 868 949
2480 1 788 869 874
2481 1 788 869 870
2482 1 870 869 874
2483 1 865 870 869
2484 1 865 870 871
2485 1 869 870 871
2486 1 868 871 870
2487 1 868 871 872
2488 1 870 871 872
2489 1 871 872 875
2490 1 871 872 953
2491 1 875 872 953
2492 1 792 873 878
2493 1 792 873 874
2494 1 874 873 878
2495 1 869 874 873
2496 1 869 874 875
2497 1 873 874 875
2498 1 872 875 874
2499 1 872 875 876
2500 1 874 875 876
2501 1 875 876 879
2502 1 875 876 957
2503 1 879 876 957
2504 1 796 877 882
2505 1 796 877 878
2506 1 878 877 882
2507 1 873 878 877
2508 1 873 878 879
2509 1 877 878 879
2510 1 876 879 878
2511 1 876 879 880
2512 1 878 879 880
2513 1 879 880 961
2514 1 879 880 883
2515 1 883 880 961
2516 1 800 881 882
2517 1 800 881 886
2518 1 882 881 886
2519 1 877 882 881
2520 1 877 882 883
2521 1 881 882 883
2522 1 880 883 882
2523 1 880 883 884
2524 1 882 883 884
2525 1 883 884 965
2526 1 883 884 887
2527 1 887 884 965
2528 1 804 885 886
2529 1 804 885 890
2530 1 886 885 890
2531 1 881 886 885
2532 1 881 886 887
2533 1 885 886 887
2534 1 884 887 886
2535 1 884 887 888
2536 1 886 887 888
2537 1 887 888 969
2538 1 887 888 891
2539 1 891 888 969
2540 1 808 889 890
2541 1 808 889 894
2542 1 890 889 894
2543 1 885 890 889
2544 1 885 890 891
2545 1 889 890 891
2546 1 888 891 890
2547 1 888 891 892
2548 1 890 891 892
2549 1 891 892 895
2550 1 891 892 973
2551 1 895 892 973
2552 1 812 893 894
2553 1 812 893 898
2554 1 894 893 898
2555 1 889 894 893
2556 1 889 894 895
2557 1 893 894 895
2558 1 892 895 894
2559 1 892 895 896
2560 1 894 895 896
2561 1 895 896 899
2562 1 895 896 977
2563 1 899 896 977
2564 1 816 897 898
2565 1 816 897 902
2566 1 898 897 902
2567 1 893 898 897
2568 1 893 898 899
2569 1 897 898 899
2570 1 896 899 898
2571 1 896 899 900
2572 1 898 899 900
2573 1 899 900 981
2574 1 899 900 903
2575 1 903 900 981
2576 1 820 901 902
2577 1 820 901 906
2578 1 902 901 906
2579 1 897 902 901
2580 1 897 902 903
2581 1 901 902 903
2582 1 900 903 902
2583 1 900 903 904
2584 1 902 903 904
2585 1 903 904 985
2586 1 903 904 907
2587 1 907 904 985
2588 1 824 905 906
2589 1 824 905 910
2590 1 906 905 910
2591 1 901 906 905
2592 1 901 906 907
2593 1 905 906 907
2594 1 904 907 906
2595 1 904 907 908
2596 1 906 907 908
2597 1 907 908 989
2598 1 907 908 911
2599 1 911 908 989
2600 1 828 909 914
2601 1 828 909 910
2602 1 910 909 914
2603 1 905 910 909
2604 1 905 910 911
2605 1 909 910 911
2606 1 908 911 910
2607 1 908 911 912
2608 1 910 911 912
2609 1 911 912 993
2610 1 911 912 915
2611 1 915 912 993
2612 1 832 913 918
2613 1 832 913 914
2614 1 914 913 918
2615 1 909 914 913
2616 1 909 914 915
2617 1 913 914 915
2618 1 912 915 914
2619 1 912 915 916
2620 1 914 915 916
2621 1 915 916 997
2622 1 915 916 919
2623 1 919 916 997
2624 1 836 917 922
2625 1 836 917 918
2626 1 918 917 922
2627 1 913 918 917
2628 1 913 918 919
2629 1 917 918 919
2630 1 916 919 918
2631 1 916 919 920
2632 1 918 919 920
2633 1 919 920 1001
2634 1 919 920 923
2635 1 923 920 1001
2636 1 840 921 922
2637 1 917 922 921
2638 1 917 922 923
2639 1 921 922 923
2640 1 920 923 922
2641 1 920 923 924
2642 1 922 923 924
2643 1 923 924 1005
2644 1 844 925 926
2645 1 844 925 930
2646 1 926 925 930
2647 1 925 926 927
2648 1 926 927 928
2649 1 927 928 931
2650 1 848 929 930
2651 1 848 929 934
2652 1 930 929 934
2653 1 925 930 929
2654 1 925 930 931
2655 1 929 930 931
2656 1 928 931 930
2657 1 928 931 932
2658 1 930 931 932
2659 1 931 932 935
2660 1 852 933 938
2661 1 852 933 934
2662 1 934 933 938
2663 1 929 934 933
2664 1 929 934 935
2665 1 933 934 935
2666 1 932 935 934
2667 1 932 935 936
2668 1 934 935 936
2669 1 935 936 939
2670 1 856 937 942
2671 1 856 937 938
2672 1 938 937 942
2673 1 933 938 937
2674 1 933 938 939
2675 1 937 938 939
2676 1 936 939 938
2677 1 936 939 940
2678 1 938 939 940
2679 1 939 940 943
2680 1 860 941 946
2681 1 860 941 942
2682 1 942 941 946
2683 1 937 942 941
2684 1 937 942 943
2685 1 941 942 943
2686 1 940 943 942
2687 1 940 943 944
2688 1 942 943 944
2689 1 943 944 947
2690 1 864 945 946
2691 1 864 945 950
2692 1 946 945 950
2693 1 941 946 945
2694 1 941 946 947
2695 1 945 946 947
2696 1 944 947 946
2697 1 944 947 948
2698 1 946 947 948
2699 1 947 948 951
2700 1 868 949 950
2701 1 868 949 954
2702 1 950 949 954
2703 1 945 950 949
2704 1 945 950 951
2705 1 949 950 951
2706 1 948 951 950
2707 1 948 951 952
2708 1 950 951 952
2709 1 951 952 955
2710 1 872 953 958
2711 1 872 953 954
2712 1 954 953 958
2713 1 949 954 953
2714 1 949 954 955
2715 1 953 954 955
2716 1 952 955 954
2717 1 952 955 956
2718 1 954 955 956
2719 1 955 956 959
2720 1 876 957 962
2721 1 876 957 958
2722 1 958 957 962
2723 1 953 958 957
2724 1 953 958 959
2725 1 957 958 959
2726 1 956 959 958
2727 1 956 959 960
2728 1 958 959 960
2729 1 959 960 963
2730 1 880 961 966
2731 1 880 961 962
2732 1 962 961 966
2733 1 957 962 961
2734 1 957 962 963
2735 1 961 962 963
2736 1 960 963 962
2737 1 960 963 964
2738 1 962 963 964
2739 1 963 964 967
2740 1 884 965 966
2741 1 884 965 970
2742 1 966 965 970
2743 1 961 966 965
2744 1 961 966 967
2745 1 965 966 967
2746 1 964 967 966
2747 1 964 967 968
2748 1 966 967 968
2749 1 967 968 971
2750 1 888 969 970
2751 1 888 969 974
2752 1 970 969 974
2753 1 965 970 969
2754 1 965 970 971
2755 1 969 970 971
2756 1 968 971 970
2757 1 968 971 972
2758 1 970 971 972
2759 1 971 972 975
2760 1 892 973 978
2761 1 892 973 974
2762 1 974 973 978
2763 1 969 974 973
2764 1 969 974 975
2765 1 973 974 975
2766 1 972 975 974
2767 1 972 975 976
2768 1 974 975 976
2769 1 975 976 979
2770 1 896 977 982
2771 1 896 977 978
2772 1 978 977 982
2773 1 973 978 977
2774 1 973 978 979
2775 1 977 978 979
2776 1 976 979 978
2777 1 976 979 980
2778 1 978 979 980
2779 1 979 980 983
2780 1 900 981 986
2781 1 900 981 982
2782 1 982 981 986
2783 1 977 982 981
2784 1 977 982 983
2785 1 981 982 983
2786 1 980 983 982
2787 1 980 983 984
2788 1 982 983 984
2789 1 983 984 987
2790 1 904 985 986
2791 1 904 985 990
2792 1 986 985 990
2793 1 981 986 985
2794 1 981 986 987
2795 1 985 986 987
2796 1 984 987 986
2797 1 984 987 988
2798 1 986 987 988
2799 1 987 988 991
2800 1 908 989 990
2801 1 908 989 994
2802 1 990 989 994
2803 1 985 990 989
2804 1 985 990 991
2805 1 989 990 991
2806 1 988 991 990
2807 1 988 991 992
2808 1 990 991 992
2809 1 991 992 995
2810 1 912 993 998
2811 1 912 993 994
2812 1 994 993 998
2813 1 989 994 993
2814 1 989 994 995
2815 1 993 994 995
2816 1 992 995 994
2817 1 992 995 996
2818 1 994 995 996
2819 1 995 996 999
2820 1 916 997 1002
2821 1 916 997 998
2822 1 998 997 1002
2823 1 993 998 997
2824 1 993 998 999
2825 1 997 998 999
2826 1 996 999 998
2827 1 996 999 1000
2828 1 998 999 1000
2829 1 999 1000 1003
2830 1 920 1001 1006
2831 1 920 1001 1002
2832 1 1002 1001 1006
2833 1 997 1002 1001
2834 1 997 1002 1003
2835 1 1001 1002 1003
2836 1 1000 1003 1002
2837 1 1000 1003 1004
2838 1 1002 1003 1004
2839 1 1003 1004 1007
2840 1 924 1005 1006
2841 1 1001 1006 1005
2842 1 1001 1006 1007
2843 1 1005 1006 1007
2844 1 1004 1007 1006
2845 1 1004 1007 1008
2846 1 1006 1007 1008

 Dihedrals

1 1 6 1 2 3
2 1 2 1 6 5
3 1 2 1 6 7
4 1 1 2 3 4
5 1 2 3 4 7
6 1 2 3 4 85
7 1 3 4 7 6
8 1 3 4 7 8
9 1 85 4 7 6
10 1 85 4 7 8
11 1 3 4 85 86
12 1 3 4 85 90
13 1 7 4 85 86
14 1 7 4 85 90
15 1 10 5 6 1
16 1 10 5 6 7
17 1 6 5 10 9
18 1 6 5 10 11
19 1 1 6 7 4
20 1 1 6 7 8
21 1 5 6 7 4
22 1 5 6 7 8
23 1 4 7 8 11
24 1 4 7 8 89
25 1 6 7 8 11
26 1 6 7 8 89
27 1 7 8 11 10
28 1 7 8 11 12
29 1 89 8 11 10
30 1 89 8 11 12
31 1 7 8 89 90
32 1 7 8 89 94
33 1 11 8 89 90
34 1 11 8 89 94
35 1 10 9 14 13
36 1 10 9 14 15
37 1 14 9 10 5
38 1 14 9 10 11
39 1 5 10 11 8
40 1 5 10 11 12
41 1 9 10 11 8
42 1 9 10 11 12
43 1 8 11 12 15
44 1 8 11 12 93
45 1 10 11 12 15
46 1 10 11 12 93
47 1 11 12 15 14
48 1 11 12 15 16
49 1 93 12 15 14
50 1 93 12 15 16
51 1 11 12 93 98
52 1 11 12 93 94
53 1 15 12 93 98
54 1 15 12 93 94
55 1 14 13 18 17
56 1 14 13 18 19
57 1 18 13 14 9
58 1 18 13 14 15
59 1 9 14 15 12
60 1 9 14 15 16
61 1 13 14 15 12
62 1 13 14 15 16
63 1 12 15 16 19
64 1 12 15 16 97
65 1 14 15 16 19
66 1 14 15 16 97
67 1 15 16 19 18
68 1 15 16 19 20
69 1 97 16 19 18
70 1 97 16 19 20
71 1 15 16 97 102
72 1 15 16 97 98
73 1 19 16 97 102
74 1 19 16 97 98
75 1 18 17 22 21
76 1 18 17 22 23
77 1 22 17 18 13
78 1 22 17 18 19
79 1 13 18 19 16
80 1 13 18 19 20
81 1 17 18 19 16
82 1 17 18 19 20
83 1 16 19 20 23
84 1 16 19 20 101
85 1 18 19 20 23
86 1 18 19 20 101
87 1 19 20 23 22
88 1 19 20 23 24
89 1 101 20 23 22
90 1 101 20 23 24
91 1 19 20 101 106
92 1 19 20 101 102
93 1 23 20 101 106
94 1 23 20 101 102
95 1 26 21 22 17
96 1 26 21 22 23
97 1 22 21 26 25
98 1 22 21 26 27
99 1 17 22 23 20
100 1 17 22 23 24
101 1 21 22 23 20
102 1 21 22 23 24
103 1 20 23 24 27
104 1 20 23 24 105
105 1 22 23 24 27
106 1 22 23 24 105
107 1 23 24 27 26
108 1 23 24 27 28
109 1 105 24 27 26
110 1 105 24 27 28
111 1 23 24 105 106
112 1 23 24 105 110
113 1 27 24 105 106
114 1 27 24 105 110
115 1 30 25 26 21
116 1 30 25 26 27
117 1 26 25 30 29
118 1 26 25 30 31
119 1 21 26 27 24
120 1 21 26 27 28
121 1 25 26 27 24
122 1 25 26 27 28
123 1 24 27 28 31
124 1 24 27 28 109
125 1 26 27 28 31
126 1 26 27 28 109
127 1 27 28 31 30
128 1 27 28 31 32
129 1 109 28 31 30
130 1 109 28 31 32
131 1 27 28 109 110
132 1 27 28 109 114
133 1 31 28 109 110
134 1 31 28 109 114
135 1 30 29 34 33
136 1 30 29 34 35
137 1 34 29 30 25
138 1 34 29 30 31
139 1 25 30 31 28
140 1 25 30 31 32
141 1 29 30 31 28
142 1 29 30 31 32
143 1 28 31 32 35
144 1 28 31 32 113
145 1 30 31 32 35
146 1 30 31 32 113
147 1 31 32 35 34
148 1 31 32 35 36
149 1 113 32 35 34
150 1 113 32 35 36
151 1 31 32 113 118
152 1 31 32 113 114
153 1 35 32 113 118
154 1 35 32 113 114
155 1 34 33 38 37
156 1 34 33 38 39
157 1 38 33 34 29
158 1 38 33 34 35
159 1 29 34 35 32
160 1 29 34 35 36
161 1 33 34 35 32
162 1 33 34 35 36
163 1 32 35 36 39
164 1 32 35 36 117
165 1 34 35 36 39
166 1 34 35 36 117
167 1 35 36 39 38
168 1 35 36 39 40
169 1 117 36 39 38
170 1 117 36 39 40
171 1 35 36 117 122
172 1 35 36 117 118
173 1 39 36 117 122
174 1 39 36 117 118
175 1 38 37 42 41
176 1 38 37 42 43
177 1 42 37 38 33
178 1 42 37 38 39
179 1 33 38 39 36
180 1 33 38 39 40
181 1 37 38 39 36
182 1 37 38 39 40
183 1 36 39 40 43
184 1 36 39 40 121
185 1 38 39 40 43
186 1 38 39 40 121
187 1 39 40 43 42
188 1 39 40 43 44
189 1 121 40 43 42
190 1 121 40 43 44
191 1 39 40 121 126
192 1 39 40 121 122
193 1 43 40 121 126
194 1 43 40 121 122
195 1 46 41 42 37
196 1 46 41 42 43
197 1 42 41 46 45
198 1 42 41 46 47
199 1 37 42 43 40
200 1 37 42 43 44
201 1 41 42 43 40
202 1 41 42 43 44
203 1 40 43 44 47
204 1 40 43 44 125
205 1 42 43 44 47
206 1 42 43 44 125
207 1 43 44 47 46
208 1 43 44 47 48
209 1 125 44 47 46
210 1 125 44 47 48
211 1 43 44 125 126
212 1 43 44 125 130
213 1 47 44 125 126
214 1 47 44 125 130
215 1 50 45 46 41
216 1 50 45 46 47
217 1 46 45 50 49
218 1 46 45 50 51
219 1 41 46 47 44
220 1 41 46 47 48
221 1 45 46 47 44
222 1 45 46 47 48
223 1 44 47 48 51
224 1 44 47 48 129
225 1 46 47 48 51
226 1 46 47 48 129
227 1 47 48 51 50
228 1 47 48 51 52
229 1 129 48 51 50
230 1 129 48 51 52
231 1 47 48 129 130
232 1 47 48 129 134
233 1 51 48 129 130
234 1 51 48 129 134
235 1 50 49 54 53
236 1 50 49 54 55
237 1 54 49 50 45
238 1 54 49 50 51
239 1 45 50 51 48
240 1 45 50 51 52
241 1 49 50 51 48
242 1 49 50 51 52
243 1 48 51 52 55
244 1 48 51 52 133
245 1 50 51 52 55
246 1 50 51 52 133
247 1 51 52 55 54
248 1 51 52 55 56
249 1 133 52 55 54
250 1 133 52 55 56
251 1 51 52 133 138
252 1 51 52 133 134
253 1 55 52 133 138
254 1 55 52 133 134
255 1 54 53 58 57
256 1 54 53 58 59
257 1 58 53 54 49
258 1 58 53 54 55
259 1 49 54 55 52
260 1 49 54 55 56
261 1 53 54 55 52
262 1 53 54 55 56
263 1 52 55 56 59
264 1 52 55 56 137
265 1 54 55 56 59
266 1 54 55 56 137
267 1 55 56 59 58
268 1 55 56 59 60
269 1 137 56 59 58
270 1 137 56 59 60
271 1 55 56 137 142
272 1 55 56 137 138
273 1 59 56 137 142
274 1 59 56 137 138
275 1 58 57 62 61
276 1 58 57 62 63
277 1 62 57 58 53
278 1 62 57 58 59
279 1 53 58 59 56
280 1 53 58 59 60
281 1 57 58 59 56
282 1 57 58 59 60
283 1 56 59 60 63
284 1 56 59 60 141
285 1 58 59 60 63
286 1 58 59 60 141
287 1 59 60 63 62
288 1 59 60 63 64
289 1 141 60 63 62
290 1 141 60 63 64
291 1 59 60 141 146
292 1 59 60 141 142
293 1 63 60 141 146
294 1 63 60 141 142
295 1 66 61 62 57
296 1 66 61 62 63
297 1 62 61 66 65
298 1 62 61 66 67
299 1 57 62 63 60
300 1 57 62 63 64
301 1 61 62 63 60
302 1 61 62 63 64
303 1 60 63 64 67
304 1 60 63 64 145
305 1 62 63 64 67
306 1 62 63 64 145
307 1 63 64 67 66
308 1 63 64 67 68
309 1 145 64 67 66
310 1 145 64 67 68
311 1 63 64 145 146
312 1 63 64 145 150
313 1 67 64 145 146
314 1 67 64 145 150
315 1 70 65 66 61
316 1 70 65 66 67
317 1 66 65 70 69
318 1 66 65 70 71
319 1 61 66 67 64
320 1 61 66 67 68
321 1 65 66 67 64
322 1 65 66 67 68
323 1 64 67 68 71
324 1 64 67 68 149
325 1 66 67 68 71
326 1 66 67 68 149
327 1 67 68 71 70
328 1 67 68 71 72
329 1 149 68 71 70
330 1 149 68 71 72
331 1 67 68 149 150
332 1 67 68 149 154
333 1 71 68 149 150
334 1 71 68 149 154
335 1 70 69 74 73
336 1 70 69 74 75
337 1 74 69 70 65
338 1 74 69 70 71
339 1 65 70 71 68
340 1 65 70 71 72
341 1 69 70 71 68
342 1 69 70 71 72
343 1 68 71 72 75
344 1 68 71 72 153
345 1 70 71 72 75
346 1 70 71 72 153
347 1 71 72 75 74
348 1 71 72 75 76
349 1 153 72 75 74
350 1 153 72 75 76
351 1 71 72 153 158
352 1 71 72 153 154
353 1 75 72 153 158
354 1 75 72 153 154
355 1 74 73 78 77
356 1 74 73 78 79
357 1 78 73 74 69
358 1 78 73 74 75
359 1 69 74 75 72
360 1 69 74 75 76
361 1 73 74 75 72
362 1 73 74 75 76
363 1 72 75 76 79
364 1 72 75 76 157
365 1 74 75 76 79
366 1 74 75 76 157
367 1 75 76 79 78
368 1 75 76 79 80
369 1 157 76 79 78
370 1 157 76 79 80
371 1 75 76 157 162
372 1 75 76 157 158
373 1 79 76 157 162
374 1 79 76 157 158
375 1 78 77 82 81
376 1 78 77 82 83
377 1 82 77 78 73
378 1 82 77 78 79
379 1 73 78 79 76
380 1 73 78 79 80
381 1 77 78 79 76
382 1 77 78 79 80
383 1 76 79 80 83
384 1 76 79 80 161
385 1 78 79 80 83
386 1 78 79 80 161
387 1 79 80 83 82
388 1 79 80 83 84
389 1 161 80 83 82
390 1 161 80 83 84
391 1 79 80 161 166
392 1 79 80 161 162
393 1 83 80 161 166
394 1 83 80 161 162
395 1 77 82 83 80
396 1 77 82 83 84
397 1 81 82 83 80
398 1 81 82 83 84
399 1 80 83 84 165
400 1 82 83 84 165
401 1 83 84 165 166
402 1 4 85 86 87
403 1 90 85 86 87
404 1 4 85 90 89
405 1 4 85 90 91
406 1 86 85 90 89
407 1 86 85 90 91
408 1 85 86 87 88
409 1 86 87 88 91
410 1 86 87 88 169
411 1 87 88 91 90
412 1 87 88 91 92
413 1 169 88 91 90
414 1 169 88 91 92
415 1 87 88 169 170
416 1 87 88 169 174
417 1 91 88 169 170
418 1 91 88 169 174
419 1 8 89 90 85
420 1 8 89 90 91
421 1 94 89 90 85
422 1 94 89 90 91
423 1 8 89 94 93
424 1 8 89 94 95
425 1 90 89 94 93
426 1 90 89 94 95
427 1 85 90 91 88
428 1 85 90 91 92
429 1 89 90 91 88
430 1 89 90 91 92
431 1 88 91 92 95
432 1 88 91 92 173
433 1 90 91 92 95
434 1 90 91 92 173
435 1 91 92 95 94
436 1 91 92 95 96
437 1 173 92 95 94
438 1 173 92 95 96
439 1 91 92 173 174
440 1 91 92 173 178
441 1 95 92 173 174
442 1 95 92 173 178
443 1 12 93 98 97
444 1 12 93 98 99
445 1 94 93 98 97
446 1 94 93 98 99
447 1 12 93 94 89
448 1 12 93 94 95
449 1 98 93 94 89
450 1 98 93 94 95
451 1 89 94 95 92
452 1 89 94 95 96
453 1 93 94 95 92
454 1 93 94 95 96
455 1 92 95 96 99
456 1 92 95 96 177
457 1 94 95 96 99
458 1 94 95 96 177
459 1 95 96 99 98
460 1 95 96 99 100
461 1 177 96 99 98
462 1 177 96 99 100
463 1 95 96 177 182
464 1 95 96 177 178
465 1 99 96 177 182
466 1 99 96 177 178
467 1 16 97 102 101
468 1 16 97 102 103
469 1 98 97 102 101
470 1 98 97 102 103
471 1 16 97 98 93
472 1 16 97 98 99
473 1 102 97 98 93
474 1 102 97 98 99
475 1 93 98 99 96
476 1 93 98 99 100
477 1 97 98 99 96
478 1 97 98 99 100
479 1 96 99 100 103
480 1 96 99 100 181
481 1 98 99 100 103
482 1 98 99 100 181
483 1 99 100 103 102
484 1 99 100 103 104
485 1 181 100 103 102
486 1 181 100 103 104
487 1 99 100 181 186
488 1 99 100 181 182
489 1 103 100 181 186
490 1 103 100 181 182
491 1 20 101 106 105
492 1 20 101 106 107
493 1 102 101 106 105
494 1 102 101 106 107
495 1 20 101 102 97
496 1 20 101 102 103
497 1 106 101 102 97
498 1 106 101 102 103
499 1 97 102 103 100
500 1 97 102 103 104
501 1 101 102 103 100
502 1 101 102 103 104
503 1 100 103 104 107
504 1 100 103 104 185
505 1 102 103 104 107
506 1 102 103 104 185
507 1 103 104 107 106
508 1 103 104 107 108
509 1 185 104 107 106
510 1 185 104 107 108
511 1 103 104 185 190
512 1 103 104 185 186
513 1 107 104 185 190
514 1 107 104 185 186
515 1 24 105 106 101
516 1 24 105 106 107
517 1 110 105 106 101
518 1 110 105 106 107
519 1 24 105 110 109
520 1 24 105 110 111
521 1 106 105 110 109
522 1 106 105 110 111
523 1 101 106 107 104
524 1 101 106 107 108
525 1 105 106 107 104
526 1 105 106 107 108
527 1 104 107 108 111
528 1 104 107 108 189
529 1 106 107 108 111
530 1 106 107 108 189
531 1 107 108 111 110
532 1 107 108 111 112
533 1 189 108 111 110
534 1 189 108 111 112
535 1 107 108 189 190
536 1 107 108 189 194
537 1 111 108 189 190
538 1 111 108 189 194
539 1 28 109 110 105
540 1 28 109 110 111
541 1 114 109 110 105
542 1 114 109 110 111
543 1 28 109 114 113
544 1 28 109 114 115
545 1 110 109 114 113
546 1 110 109 114 115
547 1 105 110 111 108
548 1 105 110 111 112
549 1 109 110 111 108
550 1 109 110 111 112
551 1 108 111 112 115
552 1 108 111 112 193
553 1 110 111 112 115
554 1 110 111 112 193
555 1 111 112 115 114
556 1 111 112 115 116
557 1 193 112 115 114
558 1 193 112 115 116
559 1 111 112 193 194
560 1 111 112 193 198
561 1 115 112 193 194
562 1 115 112 193 198
563 1 32 113 118 117
564 1 32 113 118 119
565 1 114 113 118 117
566 1 114 113 118 119
567 1 32 113 114 109
568 1 32 113 114 115
569 1 118 113 114 109
570 1 118 113 114 115
571 1 109 114 115 112
572 1 109 114 115 116
573 1 113 114 115 112
574 1 113 114 115 116
575 1 112 115 116 119
576 1 112 115 116 197
577 1 114 115 116 119
578 1 114 115 116 197
579 1 115 116 119 118
580 1 115 116 119 120
581 1 197 116 119 118
582 1 197 116 119 120
583 1 115 116 197 202
584 1 115 116 197 198
585 1 119 116 197 202
586 1 119 116 197 198
587 1 36 117 122 121
588 1 36 117 122 123
589 1 118 117 122 121
590 1 118 117 122 123
591 1 36 117 118 113
592 1 36 117 118 119
593 1 122 117 118 113
594 1 122 117 118 119
595 1 113 118 119 116
596 1 113 118 119 120
597 1 117 118 119 116
598 1 117 118 119 120
599 1 116 119 120 123
600 1 116 119 120 201
601 1 118 119 120 123
602 1 118 119 120 201
603 1 119 120 123 122
604 1 119 120 123 124
605 1 201 120 123 122
606 1 201 120 123 124
607 1 119 120 201 206
608 1 119 120 201 202
609 1 123 120 201 206
610 1 123 120 201 202
611 1 40 121 126 125
612 1 40 121 126 127
613 1 122 121 126 125
614 1 122 121 126 127
615 1 40 121 122 117
616 1 40 121 122 123
617 1 126 121 122 117
618 1 126 121 122 123
619 1 117 122 123 120
620 1 117 122 123 124
621 1 121 122 123 120
622 1 121 122 123 124
623 1 120 123 124 127
624 1 120 123 124 205
625 1 122 123 124 127
626 1 122 123 124 205
627 1 123 124 127 126
628 1 123 124 127 128
629 1 205 124 127 126
630 1 205 124 127 128
631 1 123 124 205 210
632 1 123 124 205 206
633 1 127 124 205 210
634 1 127 124 205 206
635 1 44 125 126 121
636 1 44 125 126 127
637 1 130 125 126 121
638 1 130 125 126 127
639 1 44 125 130 129
640 1 44 125 130 131
641 1 126 125 130 129
642 1 126 125 130 131
643 1 121 126 127 124
644 1 121 126 127 128
645 1 125 126 127 124
646 1 125 126 127 128
647 1 124 127 128 131
648 1 124 127 128 209
649 1 126 127 128 131
650 1 126 127 128 209
651 1 127 128 131 130
652 1 127 128 131 132
653 1 209 128 131 130
654 1 209 128 131 132
655 1 127 128 209 210
656 1 127 128 209 214
657 1 131 128 209 210
658 1 131 128 209 214
659 1 48 129 130 125
660 1 48 129 130 131
661 1 134 129 130 125
662 1 134 129 130 131
663 1 48 129 134 133
664 1 48 129 134 135
665 1 130 129 134 133
666 1 130 129 134 135
667 1 125 130 131 128
668 1 125 130 131 132
669 1 129 130 131 128
670 1 129 130 131 132
671 1 128 131 132 135
672 1 128 131 132 213
673 1 130 131 132 135
674 1 130 131 132 213
675 1 131 132 135 134
676 1 131 132 135 136
677 1 213 132 135 134
678 1 213 132 135 136
679 1 131 132 213 214
680 1 131 132 213 218
681 1 135 132 213 214
682 1 135 132 213 218
683 1 52 133 138 137
684 1 52 133 138 139
685 1 134 133 138 137
686 1 134 133 138 139
687 1 52 133 134 129
688 1 52 133 134 135
689 1 138 133 134 129
690 1 138 133 134 135
691 1 129 134 135 132
692 1 129 134 135 136
693 1 133 134 135 132
694 1 133 134 135 136
695 1 132 135 136 139
696 1 132 135 136 217
697 1 134 135 136 139
698 1 134 135 136 217
699 1 135 136 139 138
700 1 135 136 139 140
701 1 217 136 139 138
702 1 217 136 139 140
703 1 135 136 217 222
704 1 135 136 217 218
705 1 139 136 217 222
706 1 139 136 217 218
707 1 56 137 142 141
708 1 56 137 142 143
709 1 138 137 142 141
710 1 138 137 142 143
711 1 56 137 138 133
712 1 56 137 138 139
713 1 142 137 138 133
714 1 142 137 138 139
715 1 133 138 139 136
716 1 133 138 139 140
717 1 137 138 139 136
718 1 137 138 139 140
719 1 136 139 140 143
720 1 136 139 140 221
721 1 138 139 140 143
722 1 138 139 140 221
723 1 139 140 143 142
724 1 139 140 143 144
725 1 221 140 143 142
726 1 221 140 143 144
727 1 139 140 221 226
728 1 139 140 221 222
729 1 143 140 221 226
730 1 143 140 221 222
731 1 60 141 146 145
732 1 60 141 146 147
733 1 142 141 146 145
734 1 142 141 146 147
735 1 60 141 142 137
736 1 60 141 142 143
737 1 146 141 142 137
738 1 146 141 142 143
739 1 137 142 143 140
740 1 137 142 143 144
741 1 141 142 143 140
742 1 141 142 143 144
743 1 140 143 144 147
744 1 140 143 144 225
745 1 142 143 144 147
746 1 142 143 144 225
747 1 143 144 147 146
748 1 143 144 147 148
749 1 225 144 147 146
750 1 225 144 147 148
751 1 143 144 225 230
752 1 143 144 225 226
753 1 147 144 225 230
754 1 147 144 225 226
755 1 64 145 146 141
756 1 64 145 146 147
757 1 150 145 146 141
758 1 150 145 146 147
759 1 64 145 150 149
760 1 64 145 150 151
761 1 146 145 150 149
762 1 146 145 150 151
763 1 141 146 147 144
764 1 141 146 147 148
765 1 145 146 147 144
766 1 145 146 147 148
767 1 144 147 148 151
768 1 144 147 148 229
769 1 146 147 148 151
770 1 146 147 148 229
771 1 147 148 151 150
772 1 147 148 151 152
773 1 229 148 151 150
774 1 229 148 151 152
775 1 147 148 229 230
776 1 147 148 229 234
777 1 151 148 229 230
778 1 151 148 229 234
779 1 68 149 150 145
780 1 68 149 150 151
781 1 154 149 150 145
782 1 154 149 150 151
783 1 68 149 154 153
784 1 68 149 154 155
785 1 150 149 154 153
786 1 150 149 154 155
787 1 145 150 151 148
788 1 145 150 151 152
789 1 149 150 151 148
790 1 149 150 151 152
791 1 148 151 152 155
792 1 148 151 152 233
793 1 150 151 152 155
794 1 150 151 152 233
795 1 151 152 155 154
796 1 151 152 155 156
797 1 233 152 155 154
798 1 233 152 155 156
799 1 151 152 233 234
800 1 151 152 233 238
801 1 155 152 233 234
802 1 155 152 233 238
803 1 72 153 158 157
804 1 72 153 158 159
805 1 154 153 158 157
806 1 154 153 158 159
807 1 72 153 154 149
808 1 72 153 154 155
809 1 158 153 154 149
810 1 158 153 154 155
811 1 149 154 155 152
812 1 149 154 155 156
813 1 153 154 155 152
814 1 153 154 155 156
815 1 152 155 156 159
816 1 152 155 156 237
817 1 154 155 156 159
818 1 154 155 156 237
819 1 155 156 159 158
820 1 155 156 159 160
821 1 237 156 159 158
822 1 237 156 159 160
823 1 155 156 237 242
824 1 155 156 237 238
825 1 159 156 237 242
826 1 159 156 237 238
827 1 76 157 162 161
828 1 76 157 162 163
829 1 158 157 162 161
830 1 158 157 162 163
831 1 76 157 158 153
832 1 76 157 158 159
833 1 162 157 158 153
834 1 162 157 158 159
835 1 153 158 159 156
836 1 153 158 159 160
837 1 157 158 159 156
838 1 157 158 159 160
839 1 156 159 160 163
840 1 156 159 160 241
841 1 158 159 160 163
842 1 158 159 160 241
843 1 159 160 163 162
844 1 159 160 163 164
845 1 241 160 163 162
846 1 241 160 163 164
847 1 159 160 241 246
848 1 159 160 241 242
849 1 163 160 241 246
850 1 163 160 241 242
851 1 80 161 166 165
852 1 80 161 166 167
853 1 162 161 166 165
854 1 162 161 166 167
855 1 80 161 162 157
856 1 80 161 162 163
857 1 166 161 162 157
858 1 166 161 162 163
859 1 157 162 163 160
860 1 157 162 163 164
861 1 161 162 163 160
862 1 161 162 163 164
863 1 160 163 164 167
864 1 160 163 164 245
865 1 162 163 164 167
866 1 162 163 164 245
867 1 163 164 167 166
868 1 163 164 167 168
869 1 245 164 167 166
870 1 245 164 167 168
871 1 163 164 245 250
872 1 163 164 245 246
873 1 167 164 245 250
874 1 167 164 245 246
875 1 84 165 166 161
876 1 84 165 166 167
877 1 161 166 167 164
878 1 161 166 167 168
879 1 165 166 167 164
880 1 165 166 167 168
881 1 164 167 168 249
882 1 166 167 168 249
883 1 167 168 249 250
884 1 88 169 170 171
885 1 174 169 170 171
886 1 88 169 174 173
887 1 88 169 174 175
888 1 170 169 174 173
889 1 170 169 174 175
890 1 169 170 171 172
891 1 170 171 172 175
892 1 170 171 172 253
893 1 171 172 175 174
894 1 171 172 175 176
895 1 253 172 175 174
896 1 253 172 175 176
897 1 171 172 253 254
898 1 171 172 253 258
899 1 175 172 253 254
900 1 175 172 253 258
901 1 92 173 174 169
902 1 92 173 174 175
903 1 178 173 174 169
904 1 178 173 174 175
905 1 92 173 178 177
906 1 92 173 178 179
907 1 174 173 178 177
908 1 174 173 178 179
909 1 169 174 175 172
910 1 169 174 175 176
911 1 173 174 175 172
912 1 173 174 175 176
913 1 172 175 176 179
914 1 172 175 176 257
915 1 174 175 176 179
916 1 174 175 176 257
917 1 175 176 179 178
918 1 175 176 179 180
919 1 257 176 179 178
920 1 257 176 179 180
921 1 175 176 257 258
922 1 175 176 257 262
923 1 179 176 257 258
924 1 179 176 257 262
925 1 96 177 182 181
926 1 96 177 182 183
927 1 178 177 182 181
928 1 178 177 182 183
929 1 96 177 178 173
930 1 96 177 178 179
931 1 182 177 178 173
932 1 182 177 178 179
933 1 173 178 179 176
934 1 173 178 179 180
935 1 177 178 179 176
936 1 177 178 179 180
937 1 176 179 180 183
938 1 176 179 180 261
939 1 178 179 180 183
940 1 178 179 180 261
941 1 179 180 183 182
942 1 179 180 183 184
943 1 261 180 183 182
944 1 261 180 183 184
945 1 179 180 261 266
946 1 179 180 261 262
947 1 183 180 261 266
948 1 183 180 261 262
949 1 100 181 186 185
950 1 100 181 186 187
951 1 182 181 186 185
952 1 182 181 186 187
953 1 100 181 182 177
954 1 100 181 182 183
955 1 186 181 182 177
956 1 186 181 182 183
957 1 177 182 183 180
958 1 177 182 183 184
959 1 181 182 183 180
960 1 181 182 183 184
961 1 180 183 184 187
962 1 180 183 184 265
963 1 182 183 184 187
964 1 182 183 184 265
965 1 183 184 187 186
966 1 183 184 187 188
967 1 265 184 187 186
968 1 265 184 187 188
969 1 183 184 265 270
970 1 183 184 265 266
971 1 187 184 265 270
972 1 187 184 265 266
973 1 104 185 190 189
974 1 104 185 190 191
975 1 186 185 190 189
976 1 186 185 190 191
977 1 104 185 186 181
978 1 104 185 186 187
979 1 190 185 186 181
980 1 190 185 186 187
981 1 181 186 187 184
982 1 181 186 187 188
983 1 185 186 187 184
984 1 185 186 187 188
985 1 184 187 188 191
986 1 184 187 188 269
987 1 186 187 188 191
988 1 186 187 188 269
989 1 187 188 191 190
990 1 187 188 191 192
991 1 269 188 191 190
992 1 269 188 191 192
993 1 187 188 269 274
994 1 187 188 269 270
995 1 191 188 269 274
996 1 191 188 269 270
997 1 108 189 190 185
998 1 108 189 190 191
999 1 194 189 190 185
1000 1 194 189 190 191
1001 1 108 189 194 193
1002 1 108 189 194 195
1003 1 190 189 194 193
1004 1 190 189 194 195
1005 1 185 190 191 188
1006 1 185 190 191 192
1007 1 189 190 191 188
1008 1 189 190 191 192
1009 1 188 191 192 195
1010 1 188 191 192 273
1011 1 190 191 192 195
1012 1 190 191 192 273
1013 1 191 192 195 194
1014 1 191 192 195 196
1015 1 273 192 195 194
1016 1 273 192 195 196
1017 1 191 192 273 274
1018 1 191 192 273 278
1019 1 195 192 273 274
1020 1 195 192 273 278
1021 1 112 193 194 189
1022 1 112 193 194 195
1023 1 198 193 194 189
1024 1 198 193 194 195
1025 1 112 193 198 197
1026 1 112 193 198 199
1027 1 194 193 198 197
1028 1 194 193 198 199
1029 1 189 194 195 192
1030 1 189 194 195 196
1031 1 193 194 195 192
1032 1 193 194 195 196
1033 1 192 195 196 199
1034 1 192 195 196 277
1035 1 194 195 196 199
1036 1 194 195 196 277
1037 1 195 196 199 198
1038 1 195 196 199 200
1039 1 277 196 199 198
1040 1 277 196 199 200
1041 1 195 196 277 278
1042 1 195 196 277 282
1043 1 199 196 277 278
1044 1 199 196 277 282
1045 1 116 197 202 201
1046 1 116 197 202 203
1047 1 198 197 202 201
1048 1 198 197 202 203
1049 1 116 197 198 193
1050 1 116 197 198 199
1051 1 202 197 198 193
1052 1 202 197 198 199
1053 1 193 198 199 196
1054 1 193 198 199 200
1055 1 197 198 199 196
1056 1 197 198 199 200
1057 1 196 199 200 203
1058 1 196 199 200 281
1059 1 198 199 200 203
1060 1 198 199 200 281
1061 1 199 200 203 202
1062 1 199 200 203 204
1063 1 281 200 203 202
1064 1 281 200 203 204
1065 1 199 200 281 286
1066 1 199 200 281 282
1067 1 203 200 281 286
1068 1 203 200 281 282
1069 1 120 201 206 205
1070 1 120 201 206 207
1071 1 202 201 206 205
1072 1 202 201 206 207
1073 1 120 201 202 197
1074 1 120 201 202 203
1075 1 206 201 202 197
1076 1 206 201 202 203
1077 1 197 202 203 200
1078 1 197 202 203 204
1079 1 201 202 203 200
1080 1 201 202 203 204
1081 1 200 203 204 207
1082 1 200 203 204 285
1083 1 202 203 204 207
1084 1 202 203 204 285
1085 1 203 204 207 206
1086 1 203 204 207 208
1087 1 285 204 207 206
1088 1 285 204 207 208
1089 1 203 204 285 286
1090 1 203 204 285 290
1091 1 207 204 285 286
1092 1 207 204 285 290
1093 1 124 205 210 209
1094 1 124 205 210 211
1095 1 206 205 210 209
1096 1 206 205 210 211
1097 1 124 205 206 201
1098 1 124 205 206 207
1099 1 210 205 206 201
1100 1 210 205 206 207
1101 1 201 206 207 204
1102 1 201 206 207 208
1103 1 205 206 207 204
1104 1 205 206 207 208
1105 1 204 207 208 211
1106 1 204 207 208 289
1107 1 206 207 208 211
1108 1 206 207 208 289
1109 1 207 208 211 210
1110 1 207 208 211 212
1111 1 289 208 211 210
1112 1 289 208 211 212
1113 1 207 208 289 294
1114 1 207 208 289 290
1115 1 211 208 289 294
1116 1 211 208 289 290
1117 1 128 209 210 205
1118 1 128 209 210 211
1119 1 214 209 210 205
1120 1 214 209 210 211
1121 1 128 209 214 213
1122 1 128 209 214 215
1123 1 210 209 214 213
1124 1 210 209 214 215
1125 1 205 210 211 208
1126 1 205 210 211 212
1127 1 209 210 211 208
1128 1 209 210 211 212
1129 1 208 211 212 215
1130 1 208 211 212 293
1131 1 210 211 212 215
1132 1 210 211 212 293
1133 1 211 212 215 214
1134 1 211 212 215 216
1135 1 293 212 215 214
1136 1 293 212 215 216
1137 1 211 212 293 294
1138 1 211 212 293 298
1139 1 215 212 293 294
1140 1 215 212 293 298
1141 1 132 213 214 209
1142 1 132 213 214 215
1143 1 218 213 214 209
1144 1 218 213 214 215
1145 1 132 213 218 217
1146 1 132 213 218 219
1147 1 214 213 218 217
1148 1 214 213 218 219
1149 1 209 214 215 212
1150 1 209 214 215 216
1151 1 213 214 215 212
1152 1 213 214 215 216
1153 1 212 215 216 219
1154 1 212 215 216 297
1155 1 214 215 216 219
1156 1 214 215 216 297
1157 1 215 216 219 218
1158 1 215 216 219 220
1159 1 297 216 219 218
1160 1 297 216 219 220
1161 1 215 216 297 298
1162 1 215 216 297 302
1163 1 219 216 297 298
1164 1 219 216 297 302
1165 1 136 217 222 221
1166 1 136 217 222 223
1167 1 218 217 222 221
1168 1 218 217 222 223
1169 1 136 217 218 213
1170 1 136 217 218 219
1171 1 222 217 218 213
1172 1 222 217 218 219
1173 1 213 218 219 216
1174 1 213 218 219 220
1175 1 217 218 219 216
1176 1 217 218 219 220
1177 1 216 219 220 223
1178 1 216 219 220 301
1179 1 218 219 220 223
1180 1 218 219 220 301
1181 1 219 220 223 222
1182 1 219 220 223 224
1183 1 301 220 223 222
1184 1 301 220 223 224
1185 1 219 220 301 306
1186 1 219 220 301 302
1187 1 223 220 301 306
1188 1 223 220 301 302
1189 1 140 221 226 225
1190 1 140 221 226 227
1191 1 222 221 226 225
1192 1 222 221 226 227
1193 1 140 221 222 217
1194 1 140 221 222 223
1195 1 226 221 222 217
1196 1 226 221 222 223
1197 1 217 222 223 220
1198 1 217 222 223 224
1199 1 221 222 223 220
1200 1 221 222 223 224
1201 1 220 223 224 227
1202 1 220 223 224 305
1203 1 222 223 224 227
1204 1 222 223 224 305
1205 1 223 224 227 226
1206 1 223 224 227 228
1207 1 305 224 227 226
1208 1 305 224 227 228
1209 1 223 224 305 310
1210 1 223 224 305 306
1211 1 227 224 305 310
1212 1 227 224 305 306
1213 1 144 225 230 229
1214 1 144 225 230 231
1215 1 226 225 230 229
1216 1 226 225 230 231
1217 1 144 225 226 221
1218 1 144 225 226 227
1219 1 230 225 226 221
1220 1 230 225 226 227
1221 1 221 226 227 224
1222 1 221 226 227 228
1223 1 225 226 227 224
1224 1 225 226 227 228
1225 1 224 227 228 231
1226 1 224 227 228 309
1227 1 226 227 228 231
1228 1 226 227 228 309
1229 1 227 228 231 230
1230 1 227 228 231 232
1231 1 309 228 231 230
1232 1 309 228 231 232
1233 1 227 228 309 314
1234 1 227 228 309 310
1235 1 231 228 309 314
1236 1 231 228 309 310
1237 1 148 229 230 225
1238 1 148 229 230 231
1239 1 234 229 230 225
1240 1 234 229 230 231
1241 1 148 229 234 233
1242 1 148 229 234 235
1243 1 230 229 234 233
1244 1 230 229 234 235
1245 1 225 230 231 228
1246 1 225 230 231 232
1247 1 229 230 231 228
1248 1 229 230 231 232
1249 1 228 231 232 235
1250 1 228 231 232 313
1251 1 230 231 232 235
1252 1 230 231 232 313
1253 1 231 232 235 234
1254 1 231 232 235 236
1255 1 313 232 235 234
1256 1 313 232 235 236
1257 1 231 232 313 314
1258 1 231 232 313 318
1259 1 235 232 313 314
1260 1 235 232 313 318
1261 1 152 233 234 229
1262 1 152 233 234 235
1263 1 238 233 234 229
1264 1 238 233 234 235
1265 1 152 233 238 237
1266 1 152 233 238 239
1267 1 234 233 238 237
1268 1 234 233 238 239
1269 1 229 234 235 232
1270 1 229 234 235 236
1271 1 233 234 235 232
1272 1 233 234 235 236
1273 1 232 235 236 239
1274 1 232 235 236 317
1275 1 234 235 236 239
1276 1 234 235 236 317
1277 1 235 236 239 238
1278 1 235 236 239 240
1279 1 317 236 239 238
1280 1 317 236 239 240
1281 1 235 236 317 318
1282 1 235 236 317 322
1283 1 239 236 317 318
1284 1 239 236 317 322
1285 1 156 237 242 241
1286 1 156 237 242 243
1287 1 238 237 242 241
1288 1 238 237 242 243
1289 1 156 237 238 233
1290 1 156 237 238 239
1291 1 242 237 238 233
1292 1 242 237 238 239
1293 1 233 238 239 236
1294 1 233 238 239 240
1295 1 237 238 239 236
1296 1 237 238 239 240
1297 1 236 239 240 243
1298 1 236 239 240 321
1299 1 238 239 240 243
1300 1 238 239 240 321
1301 1 239 240 243 242
1302 1 239 240 243 244
1303 1 321 240 243 242
1304 1 321 240 243 244
1305 1 239 240 321 326
1306 1 239 240 321 322
1307 1 243 240 321 326
1308 1 243 240 321 322
1309 1 160 241 246 245
1310 1 160 241 246 247
1311 1 242 241 246 245
1312 1 242 241 246 247
1313 1 160 241 242 237
1314 1 160 241 242 243
1315 1 246 241 242 237
1316 1 246 241 242 243
1317 1 237 242 243 240
1318 1 237 242 243 244
1319 1 241 242 243 240
1320 1 241 242 243 244
1321 1 240 243 244 247
1322 1 240 243 244 325
1323 1 242 243 244 247
1324 1 242 243 244 325
1325 1 243 244 247 246
1326 1 243 244 247 248
1327 1 325 244 247 246
1328 1 325 244 247 248
1329 1 243 244 325 330
1330 1 243 244 325 326
1331 1 247 244 325 330
1332 1 247 244 325 326
1333 1 164 245 250 249
1334 1 164 245 250 251
1335 1 246 245 250 249
1336 1 246 245 250 251
1337 1 164 245 246 241
1338 1 164 245 246 247
1339 1 250 245 246 241
1340 1 250 245 246 247
1341 1 241 246 247 244
1342 1 241 246 247 248
1343 1 245 246 247 244
1344 1 245 246 247 248
1345 1 244 247 248 251
1346 1 244 247 248 329
1347 1 246 247 248 251
1348 1 246 247 248 329
1349 1 247 248 251 250
1350 1 247 248 251 252
1351 1 329 248 251 250
1352 1 329 248 251 252
1353 1 247 248 329 334
1354 1 247 248 329 330
1355 1 251 248 329 334
1356 1 251 248 329 330
1357 1 168 249 250 245
1358 1 168 249 250 251
1359 1 245 250 251 248
1360 1 245 250 251 252
1361 1 249 250 251 248
1362 1 249 250 251 252
1363 1 248 251 252 333
1364 1 250 251 252 333
1365 1 251 252 333 334
1366 1 172 253 254 255
1367 1 258 253 254 255
1368 1 172 253 258 257
1369 1 172 253 258 259
1370 1 254 253 258 257
1371 1 254 253 258 259
1372 1 253 254 255 256
1373 1 254 255 256 259
1374 1 254 255 256 337
1375 1 255 256 259 258
1376 1 255 256 259 260
1377 1 337 256 259 258
1378 1 337 256 259 260
1379 1 255 256 337 338
1380 1 255 256 337 342
1381 1 259 256 337 338
1382 1 259 256 337 342
1383 1 176 257 258 253
1384 1 176 257 258 259
1385 1 262 257 258 253
1386 1 262 257 258 259
1387 1 176 257 262 261
1388 1 176 257 262 263
1389 1 258 257 262 261
1390 1 258 257 262 263
1391 1 253 258 259 256
1392 1 253 258 259 260
1393 1 257 258 259 256
1394 1 257 258 259 260
1395 1 256 259 260 263
1396 1 256 259 260 341
1397 1 258 259 260 263
1398 1 258 259 260 341
1399 1 259 260 263 262
1400 1 259 260 263 264
1401 1 341 260 263 262
1402 1 341 260 263 264
1403 1 259 260 341 342
1404 1 259 260 341 346
1405 1 263 260 341 342
1406 1 263 260 341 346
1407 1 180 261 266 265
1408 1 180 261 266 267
1409 1 262 261 266 265
1410 1 262 261 266 267
1411 1 180 261 262 257
1412 1 180 261 262 263
1413 1 266 261 262 257
1414 1 266 261 262 263
1415 1 257 262 263 260
1416 1 257 262 263 264
1417 1 261 262 263 260
1418 1 261 262 263 264
1419 1 260 263 264 267
1420 1 260 263 264 345
1421 1 262 263 264 267
1422 1 262 263 264 345
1423 1 263 264 267 266
1424 1 263 264 267 268
1425 1 345 264 267 266
1426 1 345 264 267 268
1427 1 263 264 345 350
1428 1 263 264 345 346
1429 1 267 264 345 350
1430 1 267 264 345 346
1431 1 184 265 270 269
1432 1 184 265 270 271
1433 1 266 265 270 269
1434 1 266 265 270 271
1435 1 184 265 266 261
1436 1 184 265 266 267
1437 1 270 265 266 261
1438 1 270 265 266 267
1439 1 261 266 267 264
1440 1 261 266 267 268
1441 1 265 266 267 264
1442 1 265 266 267 268
1443 1 264 267 268 271
1444 1 264 267 268 349
1445 1 266 267 268 271
1446 1 266 267 268 349
1447 1 267 268 271 270
1448 1 267 268 271 272
1449 1 349 268 271 270
1450 1 349 268 271 272
1451 1 267 268 349 354
1452 1 267 268 349 350
1453 1 271 268 349 354
1454 1 271 268 349 350
1455 1 188 269 274 273
1456 1 188 269 274 275
1457 1 270 269 274 273
1458 1 270 269 274 275
1459 1 188 269 270 265
1460 1 188 269 270 271
1461 1 274 269 270 265
1462 1 274 269 270 271
1463 1 265 270 271 268
1464 1 265 270 271 272
1465 1 269 270 271 268
1466 1 269 270 271 272
1467 1 268 271 272 275
1468 1 268 271 272 353
1469 1 270 271 272 275
1470 1 270 271 272 353
1471 1 271 272 275 274
1472 1 271 272 275 276
1473 1 353 272 275 274
1474 1 353 272 275 276
1475 1 271 272 353 358
1476 1 271 272 353 354
1477 1 275 272 353 358
1478 1 275 272 353 354
1479 1 192 273 274 269
1480 1 192 273 274 275
1481 1 278 273 274 269
1482 1 278 273 274 275
1483 1 192 273 278 277
1484 1 192 273 278 279
1485 1 274 273 278 277
1486 1 274 273 278 279
1487 1 269 274 275 272
1488 1 269 274 275 276
1489 1 273 274 275 272
1490 1 273 274 275 276
1491 1 272 275 276 279
1492 1 272 275 276 357
1493 1 274 275 276 279
1494 1 274 275 276 357
1495 1 275 276 279 278
1496 1 275 276 279 280
1497 1 357 276 279 278
1498 1 357 276 279 280
1499 1 275 276 357 358
1500 1 275 276 357 362
1501 1 279 276 357 358
1502 1 279 276 357 362
1503 1 196 277 278 273
1504 1 196 277 278 279
1505 1 282 277 278 273
1506 1 282 277 278 279
1507 1 196 277 282 281
1508 1 196 277 282 283
1509 1 278 277 282 281
1510 1 278 277 282 283
1511 1 273 278 279 276
1512 1 273 278 279 280
1513 1 277 278 279 276
1514 1 277 278 279 280
1515 1 276 279 280 283
1516 1 276 279 280 361
1517 1 278 279 280 283
1518 1 278 279 280 361
1519 1 279 280 283 282
1520 1 279 280 283 284
1521 1 361 280 283 282
1522 1 361 280 283 284
1523 1 279 280 361 362
1524 1 279 280 361 366
1525 1 283 280 361 362
1526 1 283 280 361 366
1527 1 200 281 286 285
1528 1 200 281 286 287
1529 1 282 281 286 285
1530 1 282 281 286 287
1531 1 200 281 282 277
1532 1 200 281 282 283
1533 1 286 281 282 277
1534 1 286 281 282 283
1535 1 277 282 283 280
1536 1 277 282 283 284
1537 1 281 282 283 280
1538 1 281 282 283 284
1539 1 280 283 284 287
1540 1 280 283 284 365
1541 1 282 283 284 287
1542 1 282 283 284 365
1543 1 283 284 287 286
1544 1 283 284 287 288
1545 1 365 284 287 286
1546 1 365 284 287 288
1547 1 283 284 365 370
1548 1 283 284 365 366
1549 1 287 284 365 370
1550 1 287 284 365 366
1551 1 204 285 286 281
1552 1 204 285 286 287
1553 1 290 285 286 281
1554 1 290 285 286 287
1555 1 204 285 290 289
1556 1 204 285 290 291
1557 1 286 285 290 289
1558 1 286 285 290 291
1559 1 281 286 287 284
1560 1 281 286 287 288
1561 1 285 286 287 284
1562 1 285 286 287 288
1563 1 284 287 288 291
1564 1 284 287 288 369
1565 1 286 287 288 291
1566 1 286 287 288 369
1567 1 287 288 291 290
1568 1 287 288 291 292
1569 1 369 288 291 290
1570 1 369 288 291 292
1571 1 287 288 369 374
1572 1 287 288 369 370
1573 1 291 288 369 374
1574 1 291 288 369 370
1575 1 208 289 294 293
1576 1 208 289 294 295
1577 1 290 289 294 293
1578 1 290 289 294 295
1579 1 208 289 290 285
1580 1 208 289 290 291
1581 1 294 289 290 285
1582 1 294 289 290 291
1583 1 285 290 291 288
1584 1 285 290 291 292
1585 1 289 290 291 288
1586 1 289 290 291 292
1587 1 288 291 292 295
1588 1 288 291 292 373
1589 1 290 291 292 295
1590 1 290 291 292 373
1591 1 291 292 295 294
1592 1 291 292 295 296
1593 1 373 292 295 294
1594 1 373 292 295 296
1595 1 291 292 373 378
1596 1 291 292 373 374
1597 1 295 292 373 378
1598 1 295 292 373 374
1599 1 212 293 294 289
1600 1 212 293 294 295
1601 1 298 293 294 289
1602 1 298 293 294 295
1603 1 212 293 298 297
1604 1 212 293 298 299
1605 1 294 293 298 297
1606 1 294 293 298 299
1607 1 289 294 295 292
1608 1 289 294 295 296
1609 1 293 294 295 292
1610 1 293 294 295 296
1611 1 292 295 296 299
1612 1 292 295 296 377
1613 1 294 295 296 299
1614 1 294 295 296 377
1615 1 295 296 299 298
1616 1 295 296 299 300
1617 1 377 296 299 298
1618 1 377 296 299 300
1619 1 295 296 377 378
1620 1 295 296 377 382
1621 1 299 296 377 378
1622 1 299 296 377 382
1623 1 216 297 298 293
1624 1 216 297 298 299
1625 1 302 297 298 293
1626 1 302 297 298 299
1627 1 216 297 302 301
1628 1 216 297 302 303
1629 1 298 297 302 301
1630 1 298 297 302 303
1631 1 293 298 299 296
1632 1 293 298 299 300
1633 1 297 298 299 296
1634 1 297 298 299 300
1635 1 296 299 300 303
1636 1 296 299 300 381
1637 1 298 299 300 303
1638 1 298 299 300 381
1639 1 299 300 303 302
1640 1 299 300 303 304
1641 1 381 300 303 302
1642 1 381 300 303 304
1643 1 299 300 381 382
1644 1 299 300 381 386
1645 1 303 300 381 382
1646 1 303 300 381 386
1647 1 220 301 306 305
1648 1 220 301 306 307
1649 1 302 301 306 305
1650 1 302 301 306 307
1651 1 220 301 302 297
1652 1 220 301 302 303
1653 1 306 301 302 297
1654 1 306 301 302 303
1655 1 297 302 303 300
1656 1 297 302 303 304
1657 1 301 302 303 300
1658 1 301 302 303 304
1659 1 300 303 304 307
1660 1 300 303 304 385
1661 1 302 303 304 307
1662 1 302 303 304 385
1663 1 303 304 307 306
1664 1 303 304 307 308
1665 1 385 304 307 306
1666 1 385 304 307 308
1667 1 303 304 385 390
1668 1 303 304 385 386
1669 1 307 304 385 390
1670 1 307 304 385 386
1671 1 224 305 310 309
1672 1 224 305 310 311
1673 1 306 305 310 309
1674 1 306 305 310 311
1675 1 224 305 306 301
1676 1 224 305 306 307
1677 1 310 305 306 301
1678 1 310 305 306 307
1679 1 301 306 307 304
1680 1 301 306 307 308
1681 1 305 306 307 304
1682 1 305 306 307 308
1683 1 304 307 308 311
1684 1 304 307 308 389
1685 1 306 307 308 311
1686 1 306 307 308 389
1687 1 307 308 311 310
1688 1 307 308 311 312
1689 1 389 308 311 310
1690 1 389 308 311 312
1691 1 307 308 389 394
1692 1 307 308 389 390
1693 1 311 308 389 394
1694 1 311 308 389 390
1695 1 228 309 314 313
1696 1 228 309 314 315
1697 1 310 309 314 313
1698 1 310 309 314 315
1699 1 228 309 310 305
1700 1 228 309 310 311
1701 1 314 309 310 305
1702 1 314 309 310 311
1703 1 305 310 311 308
1704 1 305 310 311 312
1705 1 309 310 311 308
1706 1 309 310 311 312
1707 1 308 311 312 315
1708 1 308 311 312 393
1709 1 310 311 312 315
1710 1 310 311 312 393
1711 1 311 312 315 314
1712 1 311 312 315 316
1713 1 393 312 315 314
1714 1 393 312 315 316
1715 1 311 312 393 398
1716 1 311 312 393 394
1717 1 315 312 393 398
1718 1 315 312 393 394
1719 1 232 313 314 309
1720 1 232 313 314 315
1721 1 318 313 314 309
1722 1 318 313 314 315
1723 1 232 313 318 317
1724 1 232 313 318 319
1725 1 314 313 318 317
1726 1 314 313 318 319
1727 1 309 314 315 312
1728 1 309 314 315 316
1729 1 313 314 315 312
1730 1 313 314 315 316
1731 1 312 315 316 319
1732 1 312 315 316 397
1733 1 314 315 316 319
1734 1 314 315 316 397
1735 1 315 316 319 318
1736 1 315 316 319 320
1737 1 397 316 319 318
1738 1 397 316 319 320
1739 1 315 316 397 398
1740 1 315 316 397 402
1741 1 319 316 397 398
1742 1 319 316 397 402
1743 1 236 317 318 313
1744 1 236 317 318 319
1745 1 322 317 318 313
1746 1 322 317 318 319
1747 1 236 317 322 321
1748 1 236 317 322 323
1749 1 318 317 322 321
1750 1 318 317 322 323
1751 1 313 318 319 316
1752 1 313 318 319 320
1753 1 317 318 319 316
1754 1 317 318 319 320
1755 1 316 319 320 323
1756 1 316 319 320 401
1757 1 318 319 320 323
1758 1 318 319 320 401
1759 1 319 320 323 322
1760 1 319 320 323 324
1761 1 401 320 323 322
1762 1 401 320 323 324
1763 1 319 320 401 402
1764 1 319 320 401 406
1765 1 323 320 401 402
1766 1 323 320 401 406
1767 1 240 321 326 325
1768 1 240 321 326 327
1769 1 322 321 326 325
1770 1 322 321 326 327
1771 1 240 321 322 317
1772 1 240 321 322 323
1773 1 326 321 322 317
1774 1 326 321 322 323
1775 1 317 322 323 320
1776 1 317 322 323 324
1777 1 321 322 323 320
1778 1 321 322 323 324
1779 1 320 323 324 327
1780 1 320 323 324 405
1781 1 322 323 324 327
1782 1 322 323 324 405
1783 1 323 324 327 326
1784 1 323 324 327 328
1785 1 405 324 327 326
1786 1 405 324 327 328
1787 1 323 324 405 410
1788 1 323 324 405 406
1789 1 327 324 405 410
1790 1 327 324 405 406
1791 1 244 325 330 329
1792 1 244 325 330 331
1793 1 326 325 330 329
1794 1 326 325 330 331
1795 1 244 325 326 321
1796 1 244 325 326 327
1797 1 330 325 326 321
1798 1 330 325 326 327
1799 1 321 326 327 324
1800 1 321 326 327 328
1801 1 325 326 327 324
1802 1 325 326 327 328
1803 1 324 327 328 331
1804 1 324 327 328 409
1805 1 326 327 328 331
1806 1 326 327 328 409
1807 1 327 328 331 330
1808 1 327 328 331 332
1809 1 409 328 331 330
1810 1 409 328 331 332
1811 1 327 328 409 414
1812 1 327 328 409 410
1813 1 331 328 409 414
1814 1 331 328 409 410
1815 1 248 329 334 333
1816 1 248 329 334 335
1817 1 330 329 334 333
1818 1 330 329 334 335
1819 1 248 329 330 325
1820 1 248 329 330 331
1821 1 334 329 330 325
1822 1 334 329 330 331
1823 1 325 330 331 328
1824 1 325 330 331 332
1825 1 329 330 331 328
1826 1 329 330 331 332
1827 1 328 331 332 335
1828 1 328 331 332 413
1829 1 330 331 332 335
1830 1 330 331 332 413
1831 1 331 332 335 334
1832 1 331 332 335 336
1833 1 413 332 335 334
1834 1 413 332 335 336
1835 1 331 332 413 418
1836 1 331 332 413 414
1837 1 335 332 413 418
1838 1 335 332 413 414
1839 1 252 333 334 329
1840 1 252 333 334 335
1841 1 329 334 335 332
1842 1 329 334 335 336
1843 1 333 334 335 332
1844 1 333 334 335 336
1845 1 332 335 336 417
1846 1 334 335 336 417
1847 1 335 336 417 418
1848 1 256 337 338 339
1849 1 342 337 338 339
1850 1 256 337 342 341
1851 1 256 337 342 343
1852 1 338 337 342 341
1853 1 338 337 342 343
1854 1 337 338 339 340
1855 1 338 339 340 343
1856 1 338 339 340 421
1857 1 339 340 343 342
1858 1 339 340 343 344
1859 1 421 340 343 342
1860 1 421 340 343 344
1861 1 339 340 421 422
1862 1 339 340 421 426
1863 1 343 340 421 422
1864 1 343 340 421 426
1865 1 260 341 342 337
1866 1 260 341 342 343
1867 1 346 341 342 337
1868 1 346 341 342 343
1869 1 260 341 346 345
1870 1 260 341 346 347
1871 1 342 341 346 345
1872 1 342 341 346 347
1873 1 337 342 343 340
1874 1 337 342 343 344
1875 1 341 342 343 340
1876 1 341 342 343 344
1877 1 340 343 344 347
1878 1 340 343 344 425
1879 1 342 343 344 347
1880 1 342 343 344 425
1881 1 343 344 347 346
1882 1 343 344 347 348
1883 1 425 344 347 346
1884 1 425 344 347 348
1885 1 343 344 425 426
1886 1 343 344 425 430
1887 1 347 344 425 426
1888 1 347 344 425 430
1889 1 264 345 350 349
1890 1 264 345 350 351
1891 1 346 345 350 349
1892 1 346 345 350 351
1893 1 264 345 346 341
1894 1 264 345 346 347
1895 1 350 345 346 341
1896 1 350 345 346 347
1897 1 341 346 347 344
1898 1 341 346 347 348
1899 1 345 346 347 344
1900 1 345 346 347 348
1901 1 344 347 348 351
1902 1 344 347 348 429
1903 1 346 347 348 351
1904 1 346 347 348 429
1905 1 347 348 351 350
1906 1 347 348 351 352
1907 1 429 348 351 350
1908 1 429 348 351 352
1909 1 347 348 429 434
1910 1 347 348 429 430
1911 1 351 348 429 434
1912 1 351 348 429 430
1913 1 268 349 354 353
1914 1 268 349 354 355
1915 1 350 349 354 353
1916 1 350 349 354 355
1917 1 268 349 350 345
1918 1 268 349 350 351
1919 1 354 349 350 345
1920 1 354 349 350 351
1921 1 345 350 351 348
1922 1 345 350 351 352
1923 1 349 350 351 348
1924 1 349 350 351 352
1925 1 348 351 352 355
1926 1 348 351 352 433
1927 1 350 351 352 355
1928 1 350 351 352 433
1929 1 351 352 355 354
1930 1 351 352 355 356
1931 1 433 352 355 354
1932 1 433 352 355 356
1933 1 351 352 433 438
1934 1 351 352 433 434
1935 1 355 352 433 438
1936 1 355 352 433 434
1937 1 272 353 358 357
1938 1 272 353 358 359
1939 1 354 353 358 357
1940 1 354 353 358 359
1941 1 272 353 354 349
1942 1 272 353 354 355
1943 1 358 353 354 349
1944 1 358 353 354 355
1945 1 349 354 355 352
1946 1 349 354 355 356
1947 1 353 354 355 352
1948 1 353 354 355 356
1949 1 352 355 356 359
1950 1 352 355 356 437
1951 1 354 355 356 359
1952 1 354 355 356 437
1953 1 355 356 359 358
1954 1 355 356 359 360
1955 1 437 356 359 358
1956 1 437 356 359 360
1957 1 355 356 437 442
1958 1 355 356 437 438
1959 1 359 356 437 442
1960 1 359 356 437 438
1961 1 276 357 358 353
1962 1 276 357 358 359
1963 1 362 357 358 353
1964 1 362 357 358 359
1965 1 276 357 362 361
1966 1 276 357 362 363
1967 1 358 357 362 361
1968 1 358 357 362 363
1969 1 353 358 359 356
1970 1 353 358 359 360
1971 1 357 358 359 356
1972 1 357 358 359 360
1973 1 356 359 360 363
1974 1 356 359 360 441
1975 1 358 359 360 363
1976 1 358 359 360 441
1977 1 359 360 363 362
1978 1 359 360 363 364
1979 1 441 360 363 362
1980 1 441 360 363 364
1981 1 359 360 441 442
1982 1 359 360 441 446
1983 1 363 360 441 442
1984 1 363 360 441 446
1985 1 280 361 362 357
1986 1 280 361 362 363
1987 1 366 361 362 357
1988 1 366 361 362 363
1989 1 280 361 366 365
1990 1 280 361 366 367
1991 1 362 361 366 365
1992 1 362 361 366 367
1993 1 357 362 363 360
1994 1 357 362 363 364
1995 1 361 362 363 360
1996 1 361 362 363 364
1997 1 360 363 364 367
1998 1 360 363 364 445
1999 1 362 363 364 367
2000 1 362 363 364 445
2001 1 363 364 367 366
2002 1 363 364 367 368
2003 1 445 364 367 366
2004 1 445 364 367 368
2005 1 363 364 445 446
2006 1 363 364 445 450
2007 1 367 364 445 446
2008 1 367 364 445 450
2009 1 284 365 370 369
2010 1 284 365 370 371
2011 1 366 365 370 369
2012 1 366 365 370 371
2013 1 284 365 366 361
2014 1 284 365 366 367
2015 1 370 365 366 361
2016 1 370 365 366 367
2017 1 361 366 367 364
2018 1 361 366 367 368
2019 1 365 366 367 364
2020 1 365 366 367 368
2021 1 364 367 368 371
2022 1 364 367 368 449
2023 1 366 367 368 371
2024 1 366 367 368 449
2025 1 367 368 371 370
2026 1 367 368 371 372
2027 1 449 368 371 370
2028 1 449 368 371 372
2029 1 367 368 449 454
2030 1 367 368 449 450
2031 1 371 368 449 454
2032 1 371 368 449 450
2033 1 288 369 374 373
2034 1 288 369 374 375
2035 1 370 369 374 373
2036 1 370 369 374 375
2037 1 288 369 370 365
2038 1 288 369 370 371
2039 1 374 369 370 365
2040 1 374 369 370 371
2041 1 365 370 371 368
2042 1 365 370 371 372
2043 1 369 370 371 368
2044 1 369 370 371 372
2045 1 368 371 372 375
2046 1 368 371 372 453
2047 1 370 371 372 375
2048 1 370 371 372 453
2049 1 371 372 375 374
2050 1 371 372 375 376
2051 1 453 372 375 374
2052 1 453 372 375 376
2053 1 371 372 453 458
2054 1 371 372 453 454
2055 1 375 372 453 458
2056 1 375 372 453 454
2057 1 292 373 378 377
2058 1 292 373 378 379
2059 1 374 373 378 377
2060 1 374 373 378 379
2061 1 292 373 374 369
2062 1 292 373 374 375
2063 1 378 373 374 369
2064 1 378 373 374 375
2065 1 369 374 375 372
2066 1 369 374 375 376
2067 1 373 374 375 372
2068 1 373 374 375 376
2069 1 372 375 376 379
2070 1 372 375 376 457
2071 1 374 375 376 379
2072 1 374 375 376 457
2073 1 375 376 379 378
2074 1 375 376 379 380
2075 1 457 376 379 378
2076 1 457 376 379 380
2077 1 375 376 457 462
2078 1 375 376 457 458
2079 1 379 376 457 462
2080 1 379 376 457 458
2081 1 296 377 378 373
2082 1 296 377 378 379
2083 1 382 377 378 373
2084 1 382 377 378 379
2085 1 296 377 382 381
2086 1 296 377 382 383
2087 1 378 377 382 381
2088 1 378 377 382 383
2089 1 373 378 379 376
2090 1 373 378 379 380
2091 1 377 378 379 376
2092 1 377 378 379 380
2093 1 376 379 380 383
2094 1 376 379 380 461
2095 1 378 379 380 383
2096 1 378 379 380 461
2097 1 379 380 383 382
2098 1 379 380 383 384
2099 1 461 380 383 382
2100 1 461 380 383 384
2101 1 379 380 461 462
2102 1 379 380 461 466
2103 1 383 380 461 462
2104 1 383 380 461 466
2105 1 300 381 382 377
2106 1 300 381 382 383
2107 1 386 381 382 377
2108 1 386 381 382 383
2109 1 300 381 386 385
2110 1 300 381 386 387
2111 1 382 381 386 385
2112 1 382 381 386 387
2113 1 377 382 383 380
2114 1 377 382 383 384
2115 1 381 382 383 380
2116 1 381 382 383 384
2117 1 380 383 384 387
2118 1 380 383 384 465
2119 1 382 383 384 387
2120 1 382 383 384 465
2121 1 383 384 387 386
2122 1 383 384 387 388
2123 1 465 384 387 386
2124 1 465 384 387 388
2125 1 383 384 465 466
2126 1 383 384 465 470
2127 1 387 384 465 466
2128 1 387 384 465 470
2129 1 304 385 390 389
2130 1 304 385 390 391
2131 1 386 385 390 389
2132 1 386 385 390 391
2133 1 304 385 386 381
2134 1 304 385 386 387
2135 1 390 385 386 381
2136 1 390 385 386 387
2137 1 381 386 387 384
2138 1 381 386 387 388
2139 1 385 386 387 384
2140 1 385 386 387 388
2141 1 384 387 388 391
2142 1 384 387 388 469
2143 1 386 387 388 391
2144 1 386 387 388 469
2145 1 387 388 391 390
2146 1 387 388 391 392
2147 1 469 388 391 390
2148 1 469 388 391 392
2149 1 387 388 469 474
2150 1 387 388 469 470
2151 1 391 388 469 474
2152 1 391 388 469 470
2153 1 308 389 394 393
2154 1 308 389 394 395
2155 1 390 389 394 393
2156 1 390 389 394 395
2157 1 308 389 390 385
2158 1 308 389 390 391
2159 1 394 389 390 385
2160 1 394 389 390 391
2161 1 385 390 391 388
2162 1 385 390 391 392
2163 1 389 390 391 388
2164 1 389 390 391 392
2165 1 388 391 392 395
2166 1 388 391 392 473
2167 1 390 391 392 395
2168 1 390 391 392 473
2169 1 391 392 395 394
2170 1 391 392 395 396
2171 1 473 392 395 394
2172 1 473 392 395 396
2173 1 391 392 473 478
2174 1 391 392 473 474
2175 1 395 392 473 478
2176 1 395 392 473 474
2177 1 312 393 398 397
2178 1 312 393 398 399
2179 1 394 393 398 397
2180 1 394 393 398 399
2181 1 312 393 394 389
2182 1 312 393 394 395
2183 1 398 393 394 389
2184 1 398 393 394 395
2185 1 389 394 395 392
2186 1 389 394 395 396
2187 1 393 394 395 392
2188 1 393 394 395 396
2189 1 392 395 396 399
2190 1 392 395 396 477
2191 1 394 395 396 399
2192 1 394 395 396 477
2193 1 395 396 399 398
2194 1 395 396 399 400
2195 1 477 396 399 398
2196 1 477 396 399 400
2197 1 395 396 477 482
2198 1 395 396 477 478
2199 1 399 396 477 482
2200 1 399 396 477 478
2201 1 316 397 398 393
2202 1 316 397 398 399
2203 1 402 397 398 393
2204 1 402 397 398 399
2205 1 316 397 402 401
2206 1 316 397 402 403
2207 1 398 397 402 401
2208 1 398 397 402 403
2209 1 393 398 399 396
2210 1 393 398 399 400
2211 1 397 398 399 396
2212 1 397 398 399 400
2213 1 396 399 400 403
2214 1 396 399 400 481
2215 1 398 399 400 403
2216 1 398 399 400 481
2217 1 399 400 403 402
2218 1 399 400 403 404
2219 1 481 400 403 402
2220 1 481 400 403 404
2221 1 399 400 481 482
2222 1 399 400 481 486
2223 1 403 400 481 482
2224 1 403 400 481 486
2225 1 320 401 402 397
2226 1 320 401 402 403
2227 1 406 401 402 397
2228 1 406 401 402 403
2229 1 320 401 406 405
2230 1 320 401 406 407
2231 1 402 401 406 405
2232 1 402 401 406 407
2233 1 397 402 403 400
2234 1 397 402 403 404
2235 1 401 402 403 400
2236 1 401 402 403 404
2237 1 400 403 404 407
2238 1 400 403 404 485
2239 1 402 403 404 407
2240 1 402 403 404 485
2241 1 403 404 407 406
2242 1 403 404 407 408
2243 1 485 404 407 406
2244 1 485 404 407 408
2245 1 403 404 485 486
2246 1 403 404 485 490
2247 1 407 404 485 486
2248 1 407 404 485 490
2249 1 324 405 410 409
2250 1 324 405 410 411
2251 1 406 405 410 409
2252 1 406 405 410 411
2253 1 324 405 406 401
2254 1 324 405 406 407
2255 1 410 405 406 401
2256 1 410 405 406 407
2257 1 401 406 407 404
2258 1 401 406 407 408
2259 1 405 406 407 404
2260 1 405 406 407 408
2261 1 404 407 408 411
2262 1 404 407 408 489
2263 1 406 407 408 411
2264 1 406 407 408 489
2265 1 407 408 411 410
2266 1 407 408 411 412
2267 1 489 408 411 410
2268 1 489 408 411 412
2269 1 407 408 489 494
2270 1 407 408 489 490
2271 1 411 408 489 494
2272 1 411 408 489 490
2273 1 328 409 414 413
2274 1 328 409 414 415
2275 1 410 409 414 413
2276 1 410 409 414 415
2277 1 328 409 410 405
2278 1 328 409 410 411
2279 1 414 409 410 405
2280 1 414 409 410 411
2281 1 405 410 411 408
2282 1 405 410 411 412
2283 1 409 410 411 408
2284 1 409 410 411 412
2285 1 408 411 412 415
2286 1 408 411 412 493
2287 1 410 411 412 415
2288 1 410 411 412 493
2289 1 411 412 415 414
2290 1 411 412 415 416
2291 1 493 412 415 414
2292 1 493 412 415 416
2293 1 411 412 493 498
2294 1 411 412 493 494
2295 1 415 412 493 498
2296 1 415 412 493 494
2297 1 332 413 418 417
2298 1 332 413 418 419
2299 1 414 413 418 417
2300 1 414 413 418 419
2301 1 332 413 414 409
2302 1 332 413 414 415
2303 1 418 413 414 409
2304 1 418 413 414 415
2305 1 409 414 415 412
2306 1 409 414 415 416
2307 1 413 414 415 412
2308 1 413 414 415 416
2309 1 412 415 416 419
2310 1 412 415 416 497
2311 1 414 415 416 419
2312 1 414 415 416 497
2313 1 415 416 419 418
2314 1 415 416 419 420
2315 1 497 416 419 418
2316 1 497 416 419 420
2317 1 415 416 497 502
2318 1 415 416 497 498
2319 1 419 416 497 502
2320 1 419 416 497 498
2321 1 336 417 418 413
2322 1 336 417 418 419
2323 1 413 418 419 416
2324 1 413 418 419 420
2325 1 417 418 419 416
2326 1 417 418 419 420
2327 1 416 419 420 501
2328 1 418 419 420 501
2329 1 419 420 501 502
2330 1 340 421 422 423
2331 1 426 421 422 423
2332 1 340 421 426 425
2333 1 340 421 426 427
2334 1 422 421 426 425
2335 1 422 421 426 427
2336 1 421 422 423 424
2337 1 422 423 424 427
2338 1 422 423 424 505
2339 1 423 424 427 426
2340 1 423 424 427 428
2341 1 505 424 427 426
2342 1 505 424 427 428
2343 1 423 424 505 506
2344 1 423 424 505 510
2345 1 427 424 505 506
2346 1 427 424 505 510
2347 1 344 425 426 421
2348 1 344 425 426 427
2349 1 430 425 426 421
2350 1 430 425 426 427
2351 1 344 425 430 429
2352 1 344 425 430 431
2353 1 426 425 430 429
2354 1 426 425 430 431
2355 1 421 426 427 424
2356 1 421 426 427 428
2357 1 425 426 427 424
2358 1 425 426 427 428
2359 1 424 427 428 431
2360 1 424 427 428 509
2361 1 426 427 428 431
2362 1 426 427 428 509
2363 1 427 428 431 430
2364 1 427 428 431 432
2365 1 509 428 431 430
2366 1 509 428 431 432
2367 1 427 428 509 510
2368 1 427 428 509 514
2369 1 431 428 509 510
2370 1 431 428 509 514
2371 1 348 429 434 433
2372 1 348 429 434 435
2373 1 430 429 434 433
2374 1 430 429 434 435
2375 1 348 429 430 425
2376 1 348 429 430 431
2377 1 434 429 430 425
2378 1 434 429 430 431
2379 1 425 430 431 428
2380 1 425 430 431 432
2381 1 429 430 431 428
2382 1 429 430 431 432
2383 1 428 431 432 435
2384 1 428 431 432 513
2385 1 430 431 432 435
2386 1 430 431 432 513
2387 1 431 432 435 434
2388 1 431 432 435 436
2389 1 513 432 435 434
2390 1 513 432 435 436
2391 1 431 432 513 518
2392 1 431 432 513 514
2393 1 435 432 513 518
2394 1 435 432 513 514
2395 1 352 433 438 437
2396 1 352 433 438 439
2397 1 434 433 438 437
2398 1 434 433 438 439
2399 1 352 433 434 429
2400 1 352 433 434 435
2401 1 438 433 434 429
2402 1 438 433 434 435
2403 1 429 434 435 432
2404 1 429 434 435 436
2405 1 433 434 435 432
2406 1 433 434 435 436
2407 1 432 435 436 439
2408 1 432 435 436 517
2409 1 434 435 436 439
2410 1 434 435 436 517
2411 1 435 436 439 438
2412 1 435 436 439 440
2413 1 517 436 439 438
2414 1 517 436 439 440
2415 1 435 436 517 522
2416 1 435 436 517 518
2417 1 439 436 517 522
2418 1 439 436 517 518
2419 1 356 437 442 441
2420 1 356 437 442 443
2421 1 438 437 442 441
2422 1 438 437 442 443
2423 1 356 437 438 433
2424 1 356 437 438 439
2425 1 442 437 438 433
2426 1 442 437 438 439
2427 1 433 438 439 436
2428 1 433 438 439 440
2429 1 437 438 439 436
2430 1 437 438 439 440
2431 1 436 439 440 443
2432 1 436 439 440 521
2433 1 438 439 440 443
2434 1 438 439 440 521
2435 1 439 440 443 442
2436 1 439 440 443 444
2437 1 521 440 443 442
2438 1 521 440 443 444
2439 1 439 440 521 526
2440 1 439 440 521 522
2441 1 443 440 521 526
2442 1 443 440 521 522
2443 1 360 441 442 437
2444 1 360 441 442 443
2445 1 446 441 442 437
2446 1 446 441 442 443
2447 1 360 441 446 445
2448 1 360 441 446 447
2449 1 442 441 446 445
2450 1 442 441 446 447
2451 1 437 442 443 440
2452 1 437 442 443 444
2453 1 441 442 443 440
2454 1 441 442 443 444
2455 1 440 443 444 447
2456 1 440 443 444 525
2457 1 442 443 444 447
2458 1 442 443 444 525
2459 1 443 444 447 446
2460 1 443 444 447 448
2461 1 525 444 447 446
2462 1 525 444 447 448
2463 1 443 444 525 526
2464 1 443 444 525 530
2465 1 447 444 525 526
2466 1 447 444 525 530
2467 1 364 445 446 441
2468 1 364 445 446 447
2469 1 450 445 446 441
2470 1 450 445 446 447
2471 1 364 445 450 449
2472 1 364 445 450 451
2473 1 446 445 450 449
2474 1 446 445 450 451
2475 1 441 446 447 444
2476 1 441 446 447 448
2477 1 445 446 447 444
2478 1 445 446 447 448
2479 1 444 447 448 451
2480 1 444 447 448 529
2481 1 446 447 448 451
2482 1 446 447 448 529
2483 1 447 448 451 450
2484 1 447 448 451 452
2485 1 529 448 451 450
2486 1 529 448 451 452
2487 1 447 448 529 530
2488 1 447 448 529 534
2489 1 451 448 529 530
2490 1 451 448 529 534
2491 1 368 449 454 453
2492 1 368 449 454 455
2493 1 450 449 454 453
2494 1 450 449 454 455
2495 1 368 449 450 445
2496 1 368 449 450 451
2497 1 454 449 450 445
2498 1 454 449 450 451
2499 1 445 450 451 448
2500 1 445 450 451 452
2501 1 449 450 451 448
2502 1 449 450 451 452
2503 1 448 451 452 455
2504 1 448 451 452 533
2505 1 450 451 452 455
2506 1 450 451 452 533
2507 1 451 452 455 454
2508 1 451 452 455 456
2509 1 533 452 455 454
2510 1 533 452 455 456
2511 1 451 452 533 538
2512 1 451 452 533 534
2513 1 455 452 533 538
2514 1 455 452 533 534
2515 1 372 453 458 457
2516 1 372 453 458 459
2517 1 454 453 458 457
2518 1 454 453 458 459
2519 1 372 453 454 449
2520 1 372 453 454 455
2521 1 458 453 454 449
2522 1 458 453 454 455
2523 1 449 454 455 452
2524 1 449 454 455 456
2525 1 453 454 455 452
2526 1 453 454 455 456
2527 1 452 455 456 459
2528 1 452 455 456 537
2529 1 454 455 456 459
2530 1 454 455 456 537
2531 1 455 456 459 458
2532 1 455 456 459 460
2533 1 537 456 459 458
2534 1 537 456 459 460
2535 1 455 456 537 542
2536 1 455 456 537 538
2537 1 459 456 537 542
2538 1 459 456 537 538
2539 1 376 457 462 461
2540 1 376 457 462 463
2541 1 458 457 462 461
2542 1 458 457 462 463
2543 1 376 457 458 453
2544 1 376 457 458 459
2545 1 462 457 458 453
2546 1 462 457 458 459
2547 1 453 458 459 456
2548 1 453 458 459 460
2549 1 457 458 459 456
2550 1 457 458 459 460
2551 1 456 459 460 463
2552 1 456 459 460 541
2553 1 458 459 460 463
2554 1 458 459 460 541
2555 1 459 460 463 462
2556 1 459 460 463 464
2557 1 541 460 463 462
2558 1 541 460 463 464
2559 1 459 460 541 546
2560 1 459 460 541 542
2561 1 463 460 541 546
2562 1 463 460 541 542
2563 1 380 461 462 457
2564 1 380 461 462 463
2565 1 466 461 462 457
2566 1 466 461 462 463
2567 1 380 461 466 465
2568 1 380 461 466 467
2569 1 462 461 466 465
2570 1 462 461 466 467
2571 1 457 462 463 460
2572 1 457 462 463 464
2573 1 461 462 463 460
2574 1 461 462 463 464
2575 1 460 463 464 467
2576 1 460 463 464 545
2577 1 462 463 464 467
2578 1 462 463 464 545
2579 1 463 464 467 466
2580 1 463 464 467 468
2581 1 545 464 467 466
2582 1 545 464 467 468
2583 1 463 464 545 546
2584 1 463 464 545 550
2585 1 467 464 545 546
2586 1 467 464 545 550
2587 1 384 465 466 461
2588 1 384 465 466 467
2589 1 470 465 466 461
2590 1 470 465 466 467
2591 1 384 465 470 469
2592 1 384 465 470 471
2593 1 466 465 470 469
2594 1 466 465 470 471
2595 1 461 466 467 464
2596 1 461 466 467 468
2597 1 465 466 467 464
2598 1 465 466 467 468
2599 1 464 467 468 471
2600 1 464 467 468 549
2601 1 466 467 468 471
2602 1 466 467 468 549
2603 1 467 468 471 470
2604 1 467 468 471 472
2605 1 549 468 471 470
2606 1 549 468 471 472
2607 1 467 468 549 550
2608 1 467 468 549 554
2609 1 471 468 549 550
2610 1 471 468 549 554
2611 1 388 469 474 473
2612 1 388 469 474 475
2613 1 470 469 474 473
2614 1 470 469 474 475
2615 1 388 469 470 465
2616 1 388 469 470 471
2617 1 474 469 470 465
2618 1 474 469 470 471
2619 1 465 470 471 468
2620 1 465 470 471 472
2621 1 469 470 471 468
2622 1 469 470 471 472
2623 1 468 471 472 475
2624 1 468 471 472 553
2625 1 470 471 472 475
2626 1 470 471 472 553
2627 1 471 472 475 474
2628 1 471 472 475 476
2629 1 553 472 475 474
2630 1 553 472 475 476
2631 1 471 472 553 558
2632 1 471 472 553 554
2633 1 475 472 553 558
2634 1 475 472 553 554
2635 1 392 473 478 477
2636 1 392 473 478 479
2637 1 474 473 478 477
2638 1 474 473 478 479
2639 1 392 473 474 469
2640 1 392 473 474 475
2641 1 478 473 474 469
2642 1 478 473 474 475
2643 1 469 474 475 472
2644 1 469 474 475 476
2645 1 473 474 475 472
2646 1 473 474 475 476
2647 1 472 475 476 479
2648 1 472 475 476 557
2649 1 474 475 476 479
2650 1 474 475 476 557
2651 1 475 476 479 478
2652 1 475 476 479 480
2653 1 557 476 479 478
2654 1 557 476 479 480
2655 1 475 476 557 562
2656 1 475 476 557 558
2657 1 479 476 557 562
2658 1 479 476 557 558
2659 1 396 477 482 481
2660 1 396 477 482 483
2661 1 478 477 482 481
2662 1 478 477 482 483
2663 1 396 477 478 473
2664 1 396 477 478 479
2665 1 482 477 478 473
2666 1 482 477 478 479
2667 1 473 478 479 476
2668 1 473 478 479 480
2669 1 477 478 479 476
2670 1 477 478 479 480
2671 1 476 479 480 483
2672 1 476 479 480 561
2673 1 478 479 480 483
2674 1 478 479 480 561
2675 1 479 480 483 482
2676 1 479 480 483 484
2677 1 561 480 483 482
2678 1 561 480 483 484
2679 1 479 480 561 566
2680 1 479 480 561 562
2681 1 483 480 561 566
2682 1 483 480 561 562
2683 1 400 481 482 477
2684 1 400 481 482 483
2685 1 486 481 482 477
2686 1 486 481 482 483
2687 1 400 481 486 485
2688 1 400 481 486 487
2689 1 482 481 486 485
2690 1 482 481 486 487
2691 1 477 482 483 480
2692 1 477 482 483 484
2693 1 481 482 483 480
2694 1 481 482 483 484
2695 1 480 483 484 487
2696 1 480 483 484 565
2697 1 482 483 484 487
2698 1 482 483 484 565
2699 1 483 484 487 486
2700 1 483 484 487 488
2701 1 565 484 487 486
2702 1 565 484 487 488
2703 1 483 484 565 566
2704 1 483 484 565 570
2705 1 487 484 565 566
2706 1 487 484 565 570
2707 1 404 485 486 481
2708 1 404 485 486 487
2709 1 490 485 486 481
2710 1 490 485 486 487
2711 1 404 485 490 489
2712 1 404 485 490 491
2713 1 486 485 490 489
2714 1 486 485 490 491
2715 1 481 486 487 484
2716 1 481 486 487 488
2717 1 485 486 487 484
2718 1 485 486 487 488
2719 1 484 487 488 491
2720 1 484 487 488 569
2721 1 486 487 488 491
2722 1 486 487 488 569
2723 1 487 488 491 490
2724 1 487 488 491 492
2725 1 569 488 491 490
2726 1 569 488 491 492
2727 1 487 488 569 570
2728 1 487 488 569 574
2729 1 491 488 569 570
2730 1 491 488 569 574
2731 1 408 489 494 493
2732 1 408 489 494 495
2733 1 490 489 494 493
2734 1 490 489 494 495
2735 1 408 489 490 485
2736 1 408 489 490 491
2737 1 494 489 490 485
2738 1 494 489 490 491
2739 1 485 490 491 488
2740 1 485 490 491 492
2741 1 489 490 491 488
2742 1 489 490 491 492
2743 1 488 491 492 495
2744 1 488 491 492 573
2745 1 490 491 492 495
2746 1 490 491 492 573
2747 1 491 492 495 494
2748 1 491 492 495 496
2749 1 573 492 495 494
2750 1 573 492 495 496
2751 1 491 492 573 578
2752 1 491 492 573 574
2753 1 495 492 573 578
2754 1 495 492 573 574
2755 1 412 493 498 497
2756 1 412 493 498 499
2757 1 494 493 498 497
2758 1 494 493 498 499
2759 1 412 493 494 489
2760 1 412 493 494 495
2761 1 498 493 494 489
2762 1 498 493 494 495
2763 1 489 494 495 492
2764 1 489 494 495 496
2765 1 493 494 495 492
2766 1 493 494 495 496
2767 1 492 495 496 499
2768 1 492 495 496 577
2769 1 494 495 496 499
2770 1 494 495 496 577
2771 1 495 496 499 498
2772 1 495 496 499 500
2773 1 577 496 499 498
2774 1 577 496 499 500
2775 1 495 496 577 582
2776 1 495 496 577 578
2777 1 499 496 577 582
2778 1 499 496 577 578
2779 1 416 497 502 501
2780 1 416 497 502 503
2781 1 498 497 502 501
2782 1 498 497 502 503
2783 1 416 497 498 493
2784 1 416 497 498 499
2785 1 502 497 498 493
2786 1 502 497 498 499
2787 1 493 498 499 496
2788 1 493 498 499 500
2789 1 497 498 499 496
2790 1 497 498 499 500
2791 1 496 499 500 503
2792 1 496 499 500 581
2793 1 498 499 500 503
2794 1 498 499 500 581
2795 1 499 500 503 502
2796 1 499 500 503 504
2797 1 581 500 503 502
2798 1 581 500 503 504
2799 1 499 500 581 586
2800 1 499 500 581 582
2801 1 503 500 581 586
2802 1 503 500 581 582
2803 1 420 501 502 497
2804 1 420 501 502 503
2805 1 497 502 503 500
2806 1 497 502 503 504
2807 1 501 502 503 500
2808 1 501 502 503 504
2809 1 500 503 504 585
2810 1 502 503 504 585
2811 1 503 504 585 586
2812 1 424 505 506 507
2813 1 510 505 506 507
2814 1 424 505 510 509
2815 1 424 505 510 511
2816 1 506 505 510 509
2817 1 506 505 510 511
2818 1 505 506 507 508
2819 1 506 507 508 511
2820 1 506 507 508 589
2821 1 507 508 511 510
2822 1 507 508 511 512
2823 1 589 508 511 510
2824 1 589 508 511 512
2825 1 507 508 589 590
2826 1 507 508 589 594
2827 1 511 508 589 590
2828 1 511 508 589 594
2829 1 428 509 510 505
2830 1 428 509 510 511
2831 1 514 509 510 505
2832 1 514 509 510 511
2833 1 428 509 514 513
2834 1 428 509 514 515
2835 1 510 509 514 513
2836 1 510 509 514 515
2837 1 505 510 511 508
2838 1 505 510 511 512
2839 1 509 510 511 508
2840 1 509 510 511 512
2841 1 508 511 512 515
2842 1 508 511 512 593
2843 1 510 511 512 515
2844 1 510 511 512 593
2845 1 511 512 515 514
2846 1 511 512 515 516
2847 1 593 512 515 514
2848 1 593 512 515 516
2849 1 511 512 593 594
2850 1 511 512 593 598
2851 1 515 512 593 594
2852 1 515 512 593 598
2853 1 432 513 518 517
2854 1 432 513 518 519
2855 1 514 513 518 517
2856 1 514 513 518 519
2857 1 432 513 514 509
2858 1 432 513 514 515
2859 1 518 513 514 509
2860 1 518 513 514 515
2861 1 509 514 515 512
2862 1 509 514 515 516
2863 1 513 514 515 512
2864 1 513 514 515 516
2865 1 512 515 516 519
2866 1 512 515 516 597
2867 1 514 515 516 519
2868 1 514 515 516 597
2869 1 515 516 519 518
2870 1 515 516 519 520
2871 1 597 516 519 518
2872 1 597 516 519 520
2873 1 515 516 597 602
2874 1 515 516 597 598
2875 1 519 516 597 602
2876 1 519 516 597 598
2877 1 436 517 522 521
2878 1 436 517 522 523
2879 1 518 517 522 521
2880 1 518 517 522 523
2881 1 436 517 518 513
2882 1 436 517 518 519
2883 1 522 517 518 513
2884 1 522 517 518 519
2885 1 513 518 519 516
2886 1 513 518 519 520
2887 1 517 518 519 516
2888 1 517 518 519 520
2889 1 516 519 520 523
2890 1 516 519 520 601
2891 1 518 519 520 523
2892 1 518 519 520 601
2893 1 519 520 523 522
2894 1 519 520 523 524
2895 1 601 520 523 522
2896 1 601 520 523 524
2897 1 519 520 601 606
2898 1 519 520 601 602
2899 1 523 520 601 606
2900 1 523 520 601 602
2901 1 440 521 526 525
2902 1 440 521 526 527
2903 1 522 521 526 525
2904 1 522 521 526 527
2905 1 440 521 522 517
2906 1 440 521 522 523
2907 1 526 521 522 517
2908 1 526 521 522 523
2909 1 517 522 523 520
2910 1 517 522 523 524
2911 1 521 522 523 520
2912 1 521 522 523 524
2913 1 520 523 524 527
2914 1 520 523 524 605
2915 1 522 523 524 527
2916 1 522 523 524 605
2917 1 523 524 527 526
2918 1 523 524 527 528
2919 1 605 524 527 526
2920 1 605 524 527 528
2921 1 523 524 605 610
2922 1 523 524 605 606
2923 1 527 524 605 610
2924 1 527 524 605 606
2925 1 444 525 526 521
2926 1 444 525 526 527
2927 1 530 525 526 521
2928 1 530 525 526 527
2929 1 444 525 530 529
2930 1 444 525 530 531
2931 1 526 525 530 529
2932 1 526 525 530 531
2933 1 521 526 527 524
2934 1 521 526 527 528
2935 1 525 526 527 524
2936 1 525 526 527 528
2937 1 524 527 528 531
2938 1 524 527 528 609
2939 1 526 527 528 531
2940 1 526 527 528 609
2941 1 527 528 531 530
2942 1 527 528 531 532
2943 1 609 528 531 530
2944 1 609 528 531 532
2945 1 527 528 609 610
2946 1 527 528 609 614
2947 1 531 528 609 610
2948 1 531 528 609 614
2949 1 448 529 530 525
2950 1 448 529 530 531
2951 1 534 529 530 525
2952 1 534 529 530 531
2953 1 448 529 534 533
2954 1 448 529 534 535
2955 1 530 529 534 533
2956 1 530 529 534 535
2957 1 525 530 531 528
2958 1 525 530 531 532
2959 1 529 530 531 528
2960 1 529 530 531 532
2961 1 528 531 532 535
2962 1 528 531 532 613
2963 1 530 531 532 535
2964 1 530 531 532 613
2965 1 531 532 535 534
2966 1 531 532 535 536
2967 1 613 532 535 534
2968 1 613 532 535 536
2969 1 531 532 613 614
2970 1 531 532 613 618
2971 1 535 532 613 614
2972 1 535 532 613 618
2973 1 452 533 538 537
2974 1 452 533 538 539
2975 1 534 533 538 537
2976 1 534 533 538 539
2977 1 452 533 534 529
2978 1 452 533 534 535
2979 1 538 533 534 529
2980 1 538 533 534 535
2981 1 529 534 535 532
2982 1 529 534 535 536
2983 1 533 534 535 532
2984 1 533 534 535 536
2985 1 532 535 536 539
2986 1 532 535 536 617
2987 1 534 535 536 539
2988 1 534 535 536 617
2989 1 535 536 539 538
2990 1 535 536 539 540
2991 1 617 536 539 538
2992 1 617 536 539 540
2993 1 535 536 617 622
2994 1 535 536 617 618
2995 1 539 536 617 622
2996 1 539 536 617 618
2997 1 456 537 542 541
2998 1 456 537 542 543
2999 1 538 537 542 541
3000 1 538 537 542 543
3001 1 456 537 538 533
3002 1 456 537 538 539
3003 1 542 537 538 533
3004 1 542 537 538 539
3005 1 533 538 539 536
3006 1 533 538 539 540
3007 1 537 538 539 536
3008 1 537 538 539 540
3009 1 536 539 540 543
3010 1 536 539 540 621
3011 1 538 539 540 543
3012 1 538 539 540 621
3013 1 539 540 543 542
3014 1 539 540 543 544
3015 1 621 540 543 542
3016 1 621 540 543 544
3017 1 539 540 621 626
3018 1 539 540 621 622
3019 1 543 540 621 626
3020 1 543 540 621 622
3021 1 460 541 546 545
3022 1 460 541 546 547
3023 1 542 541 546 545
3024 1 542 541 546 547
3025 1 460 541 542 537
3026 1 460 541 542 543
3027 1 546 541 542 537
3028 1 546 541 542 543
3029 1 537 542 543 540
3030 1 537 542 543 544
3031 1 541 542 543 540
3032 1 541 542 543 544
3033 1 540 543 544 547
3034 1 540 543 544 625
3035 1 542 543 544 547
3036 1 542 543 544 625
3037 1 543 544 547 546
3038 1 543 544 547 548
3039 1 625 544 547 546
3040 1 625 544 547 548
3041 1 543 544 625 630
3042 1 543 544 625 626
3043 1 547 544 625 630
3044 1 547 544 625 626
3045 1 464 545 546 541
3046 1 464 545 546 547
3047 1 550 545 546 541
3048 1 550 545 546 547
3049 1 464 545 550 549
3050 1 464 545 550 551
3051 1 546 545 550 549
3052 1 546 545 550 551
3053 1 541 546 547 544
3054 1 541 546 547 548
3055 1 545 546 547 544
3056 1 545 546 547 548
3057 1 544 547 548 551
3058 1 544 547 548 629
3059 1 546 547 548 551
3060 1 546 547 548 629
3061 1 547 548 551 550
3062 1 547 548 551 552
3063 1 629 548 551 550
3064 1 629 548 551 552
3065 1 547 548 629 630
3066 1 547 548 629 634
3067 1 551 548 629 630
3068 1 551 548 629 634
3069 1 468 549 550 545
3070 1 468 549 550 551
3071 1 554 549 550 545
3072 1 554 549 550 551
3073 1 468 549 554 553
3074 1 468 549 554 555
3075 1 550 549 554 553
3076 1 550 549 554 555
3077 1 545 550 551 548
3078 1 545 550 551 552
3079 1 549 550 551 548
3080 1 549 550 551 552
3081 1 548 551 552 555
3082 1 548 551 552 633
3083 1 550 551 552 555
3084 1 550 551 552 633
3085 1 551 552 555 554
3086 1 551 552 555 556
3087 1 633 552 555 554
3088 1 633 552 555 556
3089 1 551 552 633 634
3090 1 551 552 633 638
3091 1 555 552 633 634
3092 1 555 552 633 638
3093 1 472 553 558 557
3094 1 472 553 558 559
3095 1 554 553 558 557
3096 1 554 553 558 559
3097 1 472 553 554 549
3098 1 472 553 554 555
3099 1 558 553 554 549
3100 1 558 553 554 555
3101 1 549 554 555 552
3102 1 549 554 555 556
3103 1 553 554 555 552
3104 1 553 554 555 556
3105 1 552 555 556 559
3106 1 552 555 556 637
3107 1 554 555 556 559
3108 1 554 555 556 637
3109 1 555 556 559 558
3110 1 555 556 559 560
3111 1 637 556 559 558
3112 1 637 556 559 560
3113 1 555 556 637 642
3114 1 555 556 637 638
3115 1 559 556 637 642
3116 1 559 556 637 638
3117 1 476 557 562 561
3118 1 476 557 562 563
3119 1 558 557 562 561
3120 1 558 557 562 563
3121 1 476 557 558 553
3122 1 476 557 558 559
3123 1 562 557 558 553
3124 1 562 557 558 559
3125 1 553 558 559 556
3126 1 553 558 559 560
3127 1 557 558 559 556
3128 1 557 558 559 560
3129 1 556 559 560 563
3130 1 556 559 560 641
3131 1 558 559 560 563
3132 1 558 559 560 641
3133 1 559 560 563 562
3134 1 559 560 563 564
3135 1 641 560 563 562
3136 1 641 560 563 564
3137 1 559 560 641 646
3138 1 559 560 641 642
3139 1 563 560 641 646
3140 1 563 560 641 642
3141 1 480 561 566 565
3142 1 480 561 566 567
3143 1 562 561 566 565
3144 1 562 561 566 567
3145 1 480 561 562 557
3146 1 480 561 562 563
3147 1 566 561 562 557
3148 1 566 561 562 563
3149 1 557 562 563 560
3150 1 557 562 563 564
3151 1 561 562 563 560
3152 1 561 562 563 564
3153 1 560 563 564 567
3154 1 560 563 564 645
3155 1 562 563 564 567
3156 1 562 563 564 645
3157 1 563 564 567 566
3158 1 563 564 567 568
3159 1 645 564 567 566
3160 1 645 564 567 568
3161 1 563 564 645 650
3162 1 563 564 645 646
3163 1 567 564 645 650
3164 1 567 564 645 646
3165 1 484 565 566 561
3166 1 484 565 566 567
3167 1 570 565 566 561
3168 1 570 565 566 567
3169 1 484 565 570 569
3170 1 484 565 570 571
3171 1 566 565 570 569
3172 1 566 565 570 571
3173 1 561 566 567 564
3174 1 561 566 567 568
3175 1 565 566 567 564
3176 1 565 566 567 568
3177 1 564 567 568 571
3178 1 564 567 568 649
3179 1 566 567 568 571
3180 1 566 567 568 649
3181 1 567 568 571 570
3182 1 567 568 571 572
3183 1 649 568 571 570
3184 1 649 568 571 572
3185 1 567 568 649 650
3186 1 567 568 649 654
3187 1 571 568 649 650
3188 1 571 568 649 654
3189 1 488 569 570 565
3190 1 488 569 570 571
3191 1 574 569 570 565
3192 1 574 569 570 571
3193 1 488 569 574 573
3194 1 488 569 574 575
3195 1 570 569 574 573
3196 1 570 569 574 575
3197 1 565 570 571 568
3198 1 565 570 571 572
3199 1 569 570 571 568
3200 1 569 570 571 572
3201 1 568 571 572 575
3202 1 568 571 572 653
3203 1 570 571 572 575
3204 1 570 571 572 653
3205 1 571 572 575 574
3206 1 571 572 575 576
3207 1 653 572 575 574
3208 1 653 572 575 576
3209 1 571 572 653 654
3210 1 571 572 653 658
3211 1 575 572 653 654
3212 1 575 572 653 658
3213 1 492 573 578 577
3214 1 492 573 578 579
3215 1 574 573 578 577
3216 1 574 573 578 579
3217 1 492 573 574 569
3218 1 492 573 574 575
3219 1 578 573 574 569
3220 1 578 573 574 575
3221 1 569 574 575 572
3222 1 569 574 575 576
3223 1 573 574 575 572
3224 1 573 574 575 576
3225 1 572 575 576 579
3226 1 572 575 576 657
3227 1 574 575 576 579
3228 1 574 575 576 657
3229 1 575 576 579 578
3230 1 575 576 579 580
3231 1 657 576 579 578
3232 1 657 576 579 580
3233 1 575 576 657 662
3234 1 575 576 657 658
3235 1 579 576 657 662
3236 1 579 576 657 658
3237 1 496 577 582 581
3238 1 496 577 582 583
3239 1 578 577 582 581
3240 1 578 577 582 583
3241 1 496 577 578 573
3242 1 496 577 578 579
3243 1 582 577 578 573
3244 1 582 577 578 579
3245 1 573 578 579 576
3246 1 573 578 579 580
3247 1 577 578 579 576
3248 1 577 578 579 580
3249 1 576 579 580 583
3250 1 576 579 580 661
3251 1 578 579 580 583
3252 1 578 579 580 661
3253 1 579 580 583 582
3254 1 579 580 583 584
3255 1 661 580 583 582
3256 1 661 580 583 584
3257 1 579 580 661 666
3258 1 579 580 661 662
3259 1 583 580 661 666
3260 1 583 580 661 662
3261 1 500 581 586 585
3262 1 500 581 586 587
3263 1 582 581 586 585
3264 1 582 581 586 587
3265 1 500 581 582 577
3266 1 500 581 582 583
3267 1 586 581 582 577
3268 1 586 581 582 583
3269 1 577 582 583 580
3270 1 577 582 583 584
3271 1 581 582 583 580
3272 1 581 582 583 584
3273 1 580 583 584 587
3274 1 580 583 584 665
3275 1 582 583 584 587
3276 1 582 583 584 665
3277 1 583 584 587 586
3278 1 583 584 587 588
3279 1 665 584 587 586
3280 1 665 584 587 588
3281 1 583 584 665 670
3282 1 583 584 665 666
3283 1 587 584 665 670
3284 1 587 584 665 666
3285 1 504 585 586 581
3286 1 504 585 586 587
3287 1 581 586 587 584
3288 1 581 586 587 588
3289 1 585 586 587 584
3290 1 585 586 587 588
3291 1 584 587 588 669
3292 1 586 587 588 669
3293 1 587 588 669 670
3294 1 508 589 590 591
3295 1 594 589 590 591
3296 1 508 589 594 593
3297 1 508 589 594 595
3298 1 590 589 594 593
3299 1 590 589 594 595
3300 1 589 590 591 592
3301 1 590 591 592 595
3302 1 590 591 592 673
3303 1 591 592 595 594
3304 1 591 592 595 596
3305 1 673 592 595 594
3306 1 673 592 595 596
3307 1 591 592 673 674
3308 1 591 592 673 678
3309 1 595 592 673 674
3310 1 595 592 673 678
3311 1 512 593 594 589
3312 1 512 593 594 595
3313 1 598 593 594 589
3314 1 598 593 594 595
3315 1 512 593 598 597
3316 1 512 593 598 599
3317 1 594 593 598 597
3318 1 594 593 598 599
3319 1 589 594 595 592
3320 1 589 594 595 596
3321 1 593 594 595 592
3322 1 593 594 595 596
3323 1 592 595 596 599
3324 1 592 595 596 677
3325 1 594 595 596 599
3326 1 594 595 596 677
3327 1 595 596 599 598
3328 1 595 596 599 600
3329 1 677 596 599 598
3330 1 677 596 599 600
3331 1 595 596 677 678
3332 1 595 596 677 682
3333 1 599 596 677 678
3334 1 599 596 677 682
3335 1 516 597 602 601
3336 1 516 597 602 603
3337 1 598 597 602 601
3338 1 598 597 602 603
3339 1 516 597 598 593
3340 1 516 597 598 599
3341 1 602 597 598 593
3342 1 602 597 598 599
3343 1 593 598 599 596
3344 1 593 598 599 600
3345 1 597 598 599 596
3346 1 597 598 599 600
3347 1 596 599 600 603
3348 1 596 599 600 681
3349 1 598 599 600 603
3350 1 598 599 600 681
3351 1 599 600 603 602
3352 1 599 600 603 604
3353 1 681 600 603 602
3354 1 681 600 603 604
3355 1 599 600 681 686
3356 1 599 600 681 682
3357 1 603 600 681 686
3358 1 603 600 681 682
3359 1 520 601 606 605
3360 1 520 601 606 607
3361 1 602 601 606 605
3362 1 602 601 606 607
3363 1 520 601 602 597
3364 1 520 601 602 603
3365 1 606 601 602 597
3366 1 606 601 602 603
3367 1 597 602 603 600
3368 1 597 602 603 604
3369 1 601 602 603 600
3370 1 601 602 603 604
3371 1 600 603 604 607
3372 1 600 603 604 685
3373 1 602 603 604 607
3374 1 602 603 604 685
3375 1 603 604 607 606
3376 1 603 604 607 608
3377 1 685 604 607 606
3378 1 685 604 607 608
3379 1 603 604 685 690
3380 1 603 604 685 686
3381 1 607 604 685 690
3382 1 607 604 685 686
3383 1 524 605 610 609
3384 1 524 605 610 611
3385 1 606 605 610 609
3386 1 606 605 610 611
3387 1 524 605 606 601
3388 1 524 605 606 607
3389 1 610 605 606 601
3390 1 610 605 606 607
3391 1 601 606 607 604
3392 1 601 606 607 608
3393 1 605 606 607 604
3394 1 605 606 607 608
3395 1 604 607 608 611
3396 1 604 607 608 689
3397 1 606 607 608 611
3398 1 606 607 608 689
3399 1 607 608 611 610
3400 1 607 608 611 612
3401 1 689 608 611 610
3402 1 689 608 611 612
3403 1 607 608 689 694
3404 1 607 608 689 690
3405 1 611 608 689 694
3406 1 611 608 689 690
3407 1 528 609 610 605
3408 1 528 609 610 611
3409 1 614 609 610 605
3410 1 614 609 610 611
3411 1 528 609 614 613
3412 1 528 609 614 615
3413 1 610 609 614 613
3414 1 610 609 614 615
3415 1 605 610 611 608
3416 1 605 610 611 612
3417 1 609 610 611 608
3418 1 609 610 611 612
3419 1 608 611 612 615
3420 1 608 611 612 693
3421 1 610 611 612 615
3422 1 610 611 612 693
3423 1 611 612 615 614
3424 1 611 612 615 616
3425 1 693 612 615 614
3426 1 693 612 615 616
3427 1 611 612 693 694
3428 1 611 612 693 698
3429 1 615 612 693 694
3430 1 615 612 693 698
3431 1 532 613 614 609
3432 1 532 613 614 615
3433 1 618 613 614 609
3434 1 618 613 614 615
3435 1 532 613 618 617
3436 1 532 613 618 619
3437 1 614 613 618 617
3438 1 614 613 618 619
3439 1 609 614 615 612
3440 1 609 614 615 616
3441 1 613 614 615 612
3442 1 613 614 615 616
3443 1 612 615 616 619
3444 1 612 615 616 697
3445 1 614 615 616 619
3446 1 614 615 616 697
3447 1 615 616 619 618
3448 1 615 616 619 620
3449 1 697 616 619 618
3450 1 697 616 619 620
3451 1 615 616 697 698
3452 1 615 616 697 702
3453 1 619 616 697 698
3454 1 619 616 697 702
3455 1 536 617 622 621
3456 1 536 617 622 623
3457 1 618 617 622 621
3458 1 618 617 622 623
3459 1 536 617 618 613
3460 1 536 617 618 619
3461 1 622 617 618 613
3462 1 622 617 618 619
3463 1 613 618 619 616
3464 1 613 618 619 620
3465 1 617 618 619 616
3466 1 617 618 619 620
3467 1 616 619 620 623
3468 1 616 619 620 701
3469 1 618 619 620 623
3470 1 618 619 620 701
3471 1 619 620 623 622
3472 1 619 620 623 624
3473 1 701 620 623 622
3474 1 701 620 623 624
3475 1 619 620 701 706
3476 1 619 620 701 702
3477 1 623 620 701 706
3478 1 623 620 701 702
3479 1 540 621 626 625
3480 1 540 621 626 627
3481 1 622 621 626 625
3482 1 622 621 626 627
3483 1 540 621 622 617
3484 1 540 621 622 623
3485 1 626 621 622 617
3486 1 626 621 622 623
3487 1 617 622 623 620
3488 1 617 622 623 624
3489 1 621 622 623 620
3490 1 621 622 623 624
3491 1 620 623 624 627
3492 1 620 623 624 705
3493 1 622 623 624 627
3494 1 622 623 624 705
3495 1 623 624 627 626
3496 1 623 624 627 628
3497 1 705 624 627 626
3498 1 705 624 627 628
3499 1 623 624 705 710
3500 1 623 624 705 706
3501 1 627 624 705 710
3502 1 627 624 705 706
3503 1 544 625 630 629
3504 1 544 625 630 631
3505 1 626 625 630 629
3506 1 626 625 630 631
3507 1 544 625 626 621
3508 1 544 625 626 627
3509 1 630 625 626 621
3510 1 630 625 626 627
3511 1 621 626 627 624
3512 1 621 626 627 628
3513 1 625 626 627 624
3514 1 625 626 627 628
3515 1 624 627 628 631
3516 1 624 627 628 709
3517 1 626 627 628 631
3518 1 626 627 628 709
3519 1 627 628 631 630
3520 1 627 628 631 632
3521 1 709 628 631 630
3522 1 709 628 631 632
3523 1 627 628 709 714
3524 1 627 628 709 710
3525 1 631 628 709 714
3526 1 631 628 709 710
3527 1 548 629 630 625
3528 1 548 629 630 631
3529 1 634 629 630 625
3530 1 634 629 630 631
3531 1 548 629 634 633
3532 1 548 629 634 635
3533 1 630 629 634 633
3534 1 630 629 634 635
3535 1 625 630 631 628
3536 1 625 630 631 632
3537 1 629 630 631 628
3538 1 629 630 631 632
3539 1 628 631 632 635
3540 1 628 631 632 713
3541 1 630 631 632 635
3542 1 630 631 632 713
3543 1 631 632 635 634
3544 1 631 632 635 636
3545 1 713 632 635 634
3546 1 713 632 635 636
3547 1 631 632 713 714
3548 1 631 632 713 718
3549 1 635 632 713 714
3550 1 635 632 713 718
3551 1 552 633 634 629
3552 1 552 633 634 635
3553 1 638 633 634 629
3554 1 638 633 634 635
3555 1 552 633 638 637
3556 1 552 633 638 639
3557 1 634 633 638 637
3558 1 634 633 638 639
3559 1 629 634 635 632
3560 1 629 634 635 636
3561 1 633 634 635 632
3562 1 633 634 635 636
3563 1 632 635 636 639
3564 1 632 635 636 717
3565 1 634 635 636 639
3566 1 634 635 636 717
3567 1 635 636 639 638
3568 1 635 636 639 640
3569 1 717 636 639 638
3570 1 717 636 639 640
3571 1 635 636 717 718
3572 1 635 636 717 722
3573 1 639 636 717 718
3574 1 639 636 717 722
3575 1 556 637 642 641
3576 1 556 637 642 643
3577 1 638 637 642 641
3578 1 638 637 642 643
3579 1 556 637 638 633
3580 1 556 637 638 639
3581 1 642 637 638 633
3582 1 642 637 638 639
3583 1 633 638 639 636
3584 1 633 638 639 640
3585 1 637 638 639 636
3586 1 637 638 639 640
3587 1 636 639 640 643
3588 1 636 639 640 721
3589 1 638 639 640 643
3590 1 638 639 640 721
3591 1 639 640 643 642
3592 1 639 640 643 644
3593 1 721 640 643 642
3594 1 721 640 643 644
3595 1 639 640 721 726
3596 1 639 640 721 722
3597 1 643 640 721 726
3598 1 643 640 721 722
3599 1 560 641 646 645
3600 1 560 641 646 647
3601 1 642 641 646 645
3602 1 642 641 646 647
3603 1 560 641 642 637
3604 1 560 641 642 643
3605 1 646 641 642 637
3606 1 646 641 642 643
3607 1 637 642 643 640
3608 1 637 642 643 644
3609 1 641 642 643 640
3610 1 641 642 643 644
3611 1 640 643 644 647
3612 1 640 643 644 725
3613 1 642 643 644 647
3614 1 642 643 644 725
3615 1 643 644 647 646
3616 1 643 644 647 648
3617 1 725 644 647 646
3618 1 725 644 647 648
3619 1 643 644 725 726
3620 1 643 644 725 730
3621 1 647 644 725 726
3622 1 647 644 725 730
3623 1 564 645 650 649
3624 1 564 645 650 651
3625 1 646 645 650 649
3626 1 646 645 650 651
3627 1 564 645 646 641
3628 1 564 645 646 647
3629 1 650 645 646 641
3630 1 650 645 646 647
3631 1 641 646 647 644
3632 1 641 646 647 648
3633 1 645 646 647 644
3634 1 645 646 647 648
3635 1 644 647 648 651
3636 1 644 647 648 729
3637 1 646 647 648 651
3638 1 646 647 648 729
3639 1 647 648 651 650
3640 1 647 648 651 652
3641 1 729 648 651 650
3642 1 729 648 651 652
3643 1 647 648 729 730
3644 1 647 648 729 734
3645 1 651 648 729 730
3646 1 651 648 729 734
3647 1 568 649 650 645
3648 1 568 649 650 651
3649 1 654 649 650 645
3650 1 654 649 650 651
3651 1 568 649 654 653
3652 1 568 649 654 655
3653 1 650 649 654 653
3654 1 650 649 654 655
3655 1 645 650 651 648
3656 1 645 650 651 652
3657 1 649 650 651 648
3658 1 649 650 651 652
3659 1 648 651 652 655
3660 1 648 651 652 733
3661 1 650 651 652 655
3662 1 650 651 652 733
3663 1 651 652 655 654
3664 1 651 652 655 656
3665 1 733 652 655 654
3666 1 733 652 655 656
3667 1 651 652 733 734
3668 1 651 652 733 738
3669 1 655 652 733 734
3670 1 655 652 733 738
3671 1 572 653 654 649
3672 1 572 653 654 655
3673 1 658 653 654 649
3674 1 658 653 654 655
3675 1 572 653 658 657
3676 1 572 653 658 659
3677 1 654 653 658 657
3678 1 654 653 658 659
3679 1 649 654 655 652
3680 1 649 654 655 656
3681 1 653 654 655 652
3682 1 653 654 655 656
3683 1 652 655 656 659
3684 1 652 655 656 737
3685 1 654 655 656 659
3686 1 654 655 656 737
3687 1 655 656 659 658
3688 1 655 656 659 660
3689 1 737 656 659 658
3690 1 737 656 659 660
3691 1 655 656 737 738
3692 1 655 656 737 742
3693 1 659 656 737 738
3694 1 659 656 737 742
3695 1 576 657 662 661
3696 1 576 657 662 663
3697 1 658 657 662 661
3698 1 658 657 662 663
3699 1 576 657 658 653
3700 1 576 657 658 659
3701 1 662 657 658 653
3702 1 662 657 658 659
3703 1 653 658 659 656
3704 1 653 658 659 660
3705 1 657 658 659 656
3706 1 657 658 659 660
3707 1 656 659 660 663
3708 1 656 659 660 741
3709 1 658 659 660 663
3710 1 658 659 660 741
3711 1 659 660 663 662
3712 1 659 660 663 664
3713 1 741 660 663 662
3714 1 741 660 663 664
3715 1 659 660 741 742
3716 1 659 660 741 746
3717 1 663 660 741 742
3718 1 663 660 741 746
3719 1 580 661 666 665
3720 1 580 661 666 667
3721 1 662 661 666 665
3722 1 662 661 666 667
3723 1 580 661 662 657
3724 1 580 661 662 663
3725 1 666 661 662 657
3726 1 666 661 662 663
3727 1 657 662 663 660
3728 1 657 662 663 664
3729 1 661 662 663 660
3730 1 661 662 663 664
3731 1 660 663 664 667
3732 1 660 663 664 745
3733 1 662 663 664 667
3734 1 662 663 664 745
3735 1 663 664 667 666
3736 1 663 664 667 668
3737 1 745 664 667 666
3738 1 745 664 667 668
3739 1 663 664 745 746
3740 1 663 664 745 750
3741 1 667 664 745 746
3742 1 667 664 745 750
3743 1 584 665 670 669
3744 1 584 665 670 671
3745 1 666 665 670 669
3746 1 666 665 670 671
3747 1 584 665 666 661
3748 1 584 665 666 667
3749 1 670 665 666 661
3750 1 670 665 666 667
3751 1 661 666 667 664
3752 1 661 666 667 668
3753 1 665 666 667 664
3754 1 665 666 667 668
3755 1 664 667 668 671
3756 1 664 667 668 749
3757 1 666 667 668 671
3758 1 666 667 668 749
3759 1 667 668 671 670
3760 1 667 668 671 672
3761 1 749 668 671 670
3762 1 749 668 671 672
3763 1 667 668 749 750
3764 1 667 668 749 754
3765 1 671 668 749 750
3766 1 671 668 749 754
3767 1 588 669 670 665
3768 1 588 669 670 671
3769 1 665 670 671 668
3770 1 665 670 671 672
3771 1 669 670 671 668
3772 1 669 670 671 672
3773 1 668 671 672 753
3774 1 670 671 672 753
3775 1 671 672 753 754
3776 1 592 673 674 675
3777 1 678 673 674 675
3778 1 592 673 678 677
3779 1 592 673 678 679
3780 1 674 673 678 677
3781 1 674 673 678 679
3782 1 673 674 675 676
3783 1 674 675 676 757
3784 1 674 675 676 679
3785 1 675 676 757 758
3786 1 675 676 757 762
3787 1 679 676 757 758
3788 1 679 676 757 762
3789 1 675 676 679 678
3790 1 675 676 679 680
3791 1 757 676 679 678
3792 1 757 676 679 680
3793 1 596 677 678 673
3794 1 596 677 678 679
3795 1 682 677 678 673
3796 1 682 677 678 679
3797 1 596 677 682 681
3798 1 596 677 682 683
3799 1 678 677 682 681
3800 1 678 677 682 683
3801 1 673 678 679 676
3802 1 673 678 679 680
3803 1 677 678 679 676
3804 1 677 678 679 680
3805 1 676 679 680 761
3806 1 676 679 680 683
3807 1 678 679 680 761
3808 1 678 679 680 683
3809 1 679 680 761 762
3810 1 679 680 761 766
3811 1 683 680 761 762
3812 1 683 680 761 766
3813 1 679 680 683 682
3814 1 679 680 683 684
3815 1 761 680 683 682
3816 1 761 680 683 684
3817 1 600 681 686 685
3818 1 600 681 686 687
3819 1 682 681 686 685
3820 1 682 681 686 687
3821 1 600 681 682 677
3822 1 600 681 682 683
3823 1 686 681 682 677
3824 1 686 681 682 683
3825 1 677 682 683 680
3826 1 677 682 683 684
3827 1 681 682 683 680
3828 1 681 682 683 684
3829 1 680 683 684 687
3830 1 680 683 684 765
3831 1 682 683 684 687
3832 1 682 683 684 765
3833 1 683 684 687 686
3834 1 683 684 687 688
3835 1 765 684 687 686
3836 1 765 684 687 688
3837 1 683 684 765 766
3838 1 683 684 765 770
3839 1 687 684 765 766
3840 1 687 684 765 770
3841 1 604 685 690 689
3842 1 604 685 690 691
3843 1 686 685 690 689
3844 1 686 685 690 691
3845 1 604 685 686 681
3846 1 604 685 686 687
3847 1 690 685 686 681
3848 1 690 685 686 687
3849 1 681 686 687 684
3850 1 681 686 687 688
3851 1 685 686 687 684
3852 1 685 686 687 688
3853 1 684 687 688 691
3854 1 684 687 688 769
3855 1 686 687 688 691
3856 1 686 687 688 769
3857 1 687 688 691 690
3858 1 687 688 691 692
3859 1 769 688 691 690
3860 1 769 688 691 692
3861 1 687 688 769 770
3862 1 687 688 769 774
3863 1 691 688 769 770
3864 1 691 688 769 774
3865 1 608 689 694 693
3866 1 608 689 694 695
3867 1 690 689 694 693
3868 1 690 689 694 695
3869 1 608 689 690 685
3870 1 608 689 690 691
3871 1 694 689 690 685
3872 1 694 689 690 691
3873 1 685 690 691 688
3874 1 685 690 691 692
3875 1 689 690 691 688
3876 1 689 690 691 692
3877 1 688 691 692 773
3878 1 688 691 692 695
3879 1 690 691 692 773
3880 1 690 691 692 695
3881 1 691 692 773 774
3882 1 691 692 773 778
3883 1 695 692 773 774
3884 1 695 692 773 778
3885 1 691 692 695 694
3886 1 691 692 695 696
3887 1 773 692 695 694
3888 1 773 692 695 696
3889 1 612 693 694 689
3890 1 612 693 694 695
3891 1 698 693 694 689
3892 1 698 693 694 695
3893 1 612 693 698 697
3894 1 612 693 698 699
3895 1 694 693 698 697
3896 1 694 693 698 699
3897 1 689 694 695 692
3898 1 689 694 695 696
3899 1 693 694 695 692
3900 1 693 694 695 696
3901 1 692 695 696 777
3902 1 692 695 696 699
3903 1 694 695 696 777
3904 1 694 695 696 699
3905 1 695 696 777 778
3906 1 695 696 777 782
3907 1 699 696 777 778
3908 1 699 696 777 782
3909 1 695 696 699 698
3910 1 695 696 699 700
3911 1 777 696 699 698
3912 1 777 696 699 700
3913 1 616 697 698 693
3914 1 616 697 698 699
3915 1 702 697 698 693
3916 1 702 697 698 699
3917 1 616 697 702 701
3918 1 616 697 702 703
3919 1 698 697 702 701
3920 1 698 697 702 703
3921 1 693 698 699 696
3922 1 693 698 699 700
3923 1 697 698 699 696
3924 1 697 698 699 700
3925 1 696 699 700 781
3926 1 696 699 700 703
3927 1 698 699 700 781
3928 1 698 699 700 703
3929 1 699 700 781 782
3930 1 699 700 781 786
3931 1 703 700 781 782
3932 1 703 700 781 786
3933 1 699 700 703 702
3934 1 699 700 703 704
3935 1 781 700 703 702
3936 1 781 700 703 704
3937 1 620 701 706 705
3938 1 620 701 706 707
3939 1 702 701 706 705
3940 1 702 701 706 707
3941 1 620 701 702 697
3942 1 620 701 702 703
3943 1 706 701 702 697
3944 1 706 701 702 703
3945 1 697 702 703 700
3946 1 697 702 703 704
3947 1 701 702 703 700
3948 1 701 702 703 704
3949 1 700 703 704 707
3950 1 700 703 704 785
3951 1 702 703 704 707
3952 1 702 703 704 785
3953 1 703 704 707 706
3954 1 703 704 707 708
3955 1 785 704 707 706
3956 1 785 704 707 708
3957 1 703 704 785 790
3958 1 703 704 785 786
3959 1 707 704 785 790
3960 1 707 704 785 786
3961 1 624 705 710 709
3962 1 624 705 710 711
3963 1 706 705 710 709
3964 1 706 705 710 711
3965 1 624 705 706 701
3966 1 624 705 706 707
3967 1 710 705 706 701
3968 1 710 705 706 707
3969 1 701 706 707 704
3970 1 701 706 707 708
3971 1 705 706 707 704
3972 1 705 706 707 708
3973 1 704 707 708 711
3974 1 704 707 708 789
3975 1 706 707 708 711
3976 1 706 707 708 789
3977 1 707 708 711 710
3978 1 707 708 711 712
3979 1 789 708 711 710
3980 1 789 708 711 712
3981 1 707 708 789 794
3982 1 707 708 789 790
3983 1 711 708 789 794
3984 1 711 708 789 790
3985 1 628 709 714 713
3986 1 628 709 714 715
3987 1 710 709 714 713
3988 1 710 709 714 715
3989 1 628 709 710 705
3990 1 628 709 710 711
3991 1 714 709 710 705
3992 1 714 709 710 711
3993 1 705 710 711 708
3994 1 705 710 711 712
3995 1 709 710 711 708
3996 1 709 710 711 712
3997 1 708 711 712 793
3998 1 708 711 712 715
3999 1 710 711 712 793
4000 1 710 711 712 715
4001 1 711 712 793 798
4002 1 711 712 793 794
4003 1 715 712 793 798
4004 1 715 712 793 794
4005 1 711 712 715 714
4006 1 711 712 715 716
4007 1 793 712 715 714
4008 1 793 712 715 716
4009 1 632 713 714 709
4010 1 632 713 714 715
4011 1 718 713 714 709
4012 1 718 713 714 715
4013 1 632 713 718 717
4014 1 632 713 718 719
4015 1 714 713 718 717
4016 1 714 713 718 719
4017 1 709 714 715 712
4018 1 709 714 715 716
4019 1 713 714 715 712
4020 1 713 714 715 716
4021 1 712 715 716 797
4022 1 712 715 716 719
4023 1 714 715 716 797
4024 1 714 715 716 719
4025 1 715 716 797 798
4026 1 715 716 797 802
4027 1 719 716 797 798
4028 1 719 716 797 802
4029 1 715 716 719 718
4030 1 715 716 719 720
4031 1 797 716 719 718
4032 1 797 716 719 720
4033 1 636 717 718 713
4034 1 636 717 718 719
4035 1 722 717 718 713
4036 1 722 717 718 719
4037 1 636 717 722 721
4038 1 636 717 722 723
4039 1 718 717 722 721
4040 1 718 717 722 723
4041 1 713 718 719 716
4042 1 713 718 719 720
4043 1 717 718 719 716
4044 1 717 718 719 720
4045 1 716 719 720 801
4046 1 716 719 720 723
4047 1 718 719 720 801
4048 1 718 719 720 723
4049 1 719 720 801 802
4050 1 719 720 801 806
4051 1 723 720 801 802
4052 1 723 720 801 806
4053 1 719 720 723 722
4054 1 719 720 723 724
4055 1 801 720 723 722
4056 1 801 720 723 724
4057 1 640 721 726 725
4058 1 640 721 726 727
4059 1 722 721 726 725
4060 1 722 721 726 727
4061 1 640 721 722 717
4062 1 640 721 722 723
4063 1 726 721 722 717
4064 1 726 721 722 723
4065 1 717 722 723 720
4066 1 717 722 723 724
4067 1 721 722 723 720
4068 1 721 722 723 724
4069 1 720 723 724 727
4070 1 720 723 724 805
4071 1 722 723 724 727
4072 1 722 723 724 805
4073 1 723 724 727 726
4074 1 723 724 727 728
4075 1 805 724 727 726
4076 1 805 724 727 728
4077 1 723 724 805 810
4078 1 723 724 805 806
4079 1 727 724 805 810
4080 1 727 724 805 806
4081 1 644 725 726 721
4082 1 644 725 726 727
4083 1 730 725 726 721
4084 1 730 725 726 727
4085 1 644 725 730 729
4086 1 644 725 730 731
4087 1 726 725 730 729
4088 1 726 725 730 731
4089 1 721 726 727 724
4090 1 721 726 727 728
4091 1 725 726 727 724
4092 1 725 726 727 728
4093 1 724 727 728 731
4094 1 724 727 728 809
4095 1 726 727 728 731
4096 1 726 727 728 809
4097 1 727 728 731 730
4098 1 727 728 731 732
4099 1 809 728 731 730
4100 1 809 728 731 732
4101 1 727 728 809 814
4102 1 727 728 809 810
4103 1 731 728 809 814
4104 1 731 728 809 810
4105 1 648 729 730 725
4106 1 648 729 730 731
4107 1 734 729 730 725
4108 1 734 729 730 731
4109 1 648 729 734 733
4110 1 648 729 734 735
4111 1 730 729 734 733
4112 1 730 729 734 735
4113 1 725 730 731 728
4114 1 725 730 731 732
4115 1 729 730 731 728
4116 1 729 730 731 732
4117 1 728 731 732 813
4118 1 728 731 732 735
4119 1 730 731 732 813
4120 1 730 731 732 735
4121 1 731 732 813 818
4122 1 731 732 813 814
4123 1 735 732 813 818
4124 1 735 732 813 814
4125 1 731 732 735 734
4126 1 731 732 735 736
4127 1 813 732 735 734
4128 1 813 732 735 736
4129 1 652 733 734 729
4130 1 652 733 734 735
4131 1 738 733 734 729
4132 1 738 733 734 735
4133 1 652 733 738 737
4134 1 652 733 738 739
4135 1 734 733 738 737
4136 1 734 733 738 739
4137 1 729 734 735 732
4138 1 729 734 735 736
4139 1 733 734 735 732
4140 1 733 734 735 736
4141 1 732 735 736 817
4142 1 732 735 736 739
4143 1 734 735 736 817
4144 1 734 735 736 739
4145 1 735 736 817 818
4146 1 735 736 817 822
4147 1 739 736 817 818
4148 1 739 736 817 822
4149 1 735 736 739 738
4150 1 735 736 739 740
4151 1 817 736 739 738
4152 1 817 736 739 740
4153 1 656 737 738 733
4154 1 656 737 738 739
4155 1 742 737 738 733
4156 1 742 737 738 739
4157 1 656 737 742 741
4158 1 656 737 742 743
4159 1 738 737 742 741
4160 1 738 737 742 743
4161 1 733 738 739 736
4162 1 733 738 739 740
4163 1 737 738 739 736
4164 1 737 738 739 740
4165 1 736 739 740 821
4166 1 736 739 740 743
4167 1 738 739 740 821
4168 1 738 739 740 743
4169 1 739 740 821 822
4170 1 739 740 821 826
4171 1 743 740 821 822
4172 1 743 740 821 826
4173 1 739 740 743 742
4174 1 739 740 743 744
4175 1 821 740 743 742
4176 1 821 740 743 744
4177 1 660 741 742 737
4178 1 660 741 742 743
4179 1 746 741 742 737
4180 1 746 741 742 743
4181 1 660 741 746 745
4182 1 660 741 746 747
4183 1 742 741 746 745
4184 1 742 741 746 747
4185 1 737 742 743 740
4186 1 737 742 743 744
4187 1 741 742 743 740
4188 1 741 742 743 744
4189 1 740 743 744 747
4190 1 740 743 744 825
4191 1 742 743 744 747
4192 1 742 743 744 825
4193 1 743 744 747 746
4194 1 743 744 747 748
4195 1 825 744 747 746
4196 1 825 744 747 748
4197 1 743 744 825 830
4198 1 743 744 825 826
4199 1 747 744 825 830
4200 1 747 744 825 826
4201 1 664 745 746 741
4202 1 664 745 746 747
4203 1 750 745 746 741
4204 1 750 745 746 747
4205 1 664 745 750 749
4206 1 664 745 750 751
4207 1 746 745 750 749
4208 1 746 745 750 751
4209 1 741 746 747 744
4210 1 741 746 747 748
4211 1 745 746 747 744
4212 1 745 746 747 748
4213 1 744 747 748 751
4214 1 744 747 748 829
4215 1 746 747 748 751
4216 1 746 747 748 829
4217 1 747 748 751 750
4218 1 747 748 751 752
4219 1 829 748 751 750
4220 1 829 748 751 752
4221 1 747 748 829 834
4222 1 747 748 829 830
4223 1 751 748 829 834
4224 1 751 748 829 830
4225 1 668 749 750 745
4226 1 668 749 750 751
4227 1 754 749 750 745
4228 1 754 749 750 751
4229 1 668 749 754 753
4230 1 668 749 754 755
4231 1 750 749 754 753
4232 1 750 749 754 755
4233 1 745 750 751 748
4234 1 745 750 751 752
4235 1 749 750 751 748
4236 1 749 750 751 752
4237 1 748 751 752 833
4238 1 748 751 752 755
4239 1 750 751 752 833
4240 1 750 751 752 755
4241 1 751 752 833 838
4242 1 751 752 833 834
4243 1 755 752 833 838
4244 1 755 752 833 834
4245 1 751 752 755 754
4246 1 751 752 755 756
4247 1 833 752 755 754
4248 1 833 752 755 756
4249 1 672 753 754 749
4250 1 672 753 754 755
4251 1 749 754 755 752
4252 1 749 754 755 756
4253 1 753 754 755 752
4254 1 753 754 755 756
4255 1 752 755 756 837
4256 1 754 755 756 837
4257 1 755 756 837 838
4258 1 676 757 758 759
4259 1 762 757 758 759
4260 1 676 757 762 761
4261 1 676 757 762 763
4262 1 758 757 762 761
4263 1 758 757 762 763
4264 1 757 758 759 760
4265 1 758 759 760 841
4266 1 758 759 760 763
4267 1 759 760 841 842
4268 1 759 760 841 846
4269 1 763 760 841 842
4270 1 763 760 841 846
4271 1 759 760 763 762
4272 1 759 760 763 764
4273 1 841 760 763 762
4274 1 841 760 763 764
4275 1 680 761 762 757
4276 1 680 761 762 763
4277 1 766 761 762 757
4278 1 766 761 762 763
4279 1 680 761 766 765
4280 1 680 761 766 767
4281 1 762 761 766 765
4282 1 762 761 766 767
4283 1 757 762 763 760
4284 1 757 762 763 764
4285 1 761 762 763 760
4286 1 761 762 763 764
4287 1 760 763 764 845
4288 1 760 763 764 767
4289 1 762 763 764 845
4290 1 762 763 764 767
4291 1 763 764 845 846
4292 1 763 764 845 850
4293 1 767 764 845 846
4294 1 767 764 845 850
4295 1 763 764 767 766
4296 1 763 764 767 768
4297 1 845 764 767 766
4298 1 845 764 767 768
4299 1 684 765 766 761
4300 1 684 765 766 767
4301 1 770 765 766 761
4302 1 770 765 766 767
4303 1 684 765 770 769
4304 1 684 765 770 771
4305 1 766 765 770 769
4306 1 766 765 770 771
4307 1 761 766 767 764
4308 1 761 766 767 768
4309 1 765 766 767 764
4310 1 765 766 767 768
4311 1 764 767 768 771
4312 1 764 767 768 849
4313 1 766 767 768 771
4314 1 766 767 768 849
4315 1 767 768 771 770
4316 1 767 768 771 772
4317 1 849 768 771 770
4318 1 849 768 771 772
4319 1 767 768 849 854
4320 1 767 768 849 850
4321 1 771 768 849 854
4322 1 771 768 849 850
4323 1 688 769 770 765
4324 1 688 769 770 771
4325 1 774 769 770 765
4326 1 774 769 770 771
4327 1 688 769 774 773
4328 1 688 769 774 775
4329 1 770 769 774 773
4330 1 770 769 774 775
4331 1 765 770 771 768
4332 1 765 770 771 772
4333 1 769 770 771 768
4334 1 769 770 771 772
4335 1 768 771 772 775
4336 1 768 771 772 853
4337 1 770 771 772 775
4338 1 770 771 772 853
4339 1 771 772 775 774
4340 1 771 772 775 776
4341 1 853 772 775 774
4342 1 853 772 775 776
4343 1 771 772 853 858
4344 1 771 772 853 854
4345 1 775 772 853 858
4346 1 775 772 853 854
4347 1 692 773 774 769
4348 1 692 773 774 775
4349 1 778 773 774 769
4350 1 778 773 774 775
4351 1 692 773 778 777
4352 1 692 773 778 779
4353 1 774 773 778 777
4354 1 774 773 778 779
4355 1 769 774 775 772
4356 1 769 774 775 776
4357 1 773 774 775 772
4358 1 773 774 775 776
4359 1 772 775 776 857
4360 1 772 775 776 779
4361 1 774 775 776 857
4362 1 774 775 776 779
4363 1 775 776 857 862
4364 1 775 776 857 858
4365 1 779 776 857 862
4366 1 779 776 857 858
4367 1 775 776 779 778
4368 1 775 776 779 780
4369 1 857 776 779 778
4370 1 857 776 779 780
4371 1 696 777 778 773
4372 1 696 777 778 779
4373 1 782 777 778 773
4374 1 782 777 778 779
4375 1 696 777 782 781
4376 1 696 777 782 783
4377 1 778 777 782 781
4378 1 778 777 782 783
4379 1 773 778 779 776
4380 1 773 778 779 780
4381 1 777 778 779 776
4382 1 777 778 779 780
4383 1 776 779 780 861
4384 1 776 779 780 783
4385 1 778 779 780 861
4386 1 778 779 780 783
4387 1 779 780 861 862
4388 1 779 780 861 866
4389 1 783 780 861 862
4390 1 783 780 861 866
4391 1 779 780 783 782
4392 1 779 780 783 784
4393 1 861 780 783 782
4394 1 861 780 783 784
4395 1 700 781 782 777
4396 1 700 781 782 783
4397 1 786 781 782 777
4398 1 786 781 782 783
4399 1 700 781 786 785
4400 1 700 781 786 787
4401 1 782 781 786 785
4402 1 782 781 786 787
4403 1 777 782 783 780
4404 1 777 782 783 784
4405 1 781 782 783 780
4406 1 781 782 783 784
4407 1 780 783 784 865
4408 1 780 783 784 787
4409 1 782 783 784 865
4410 1 782 783 784 787
4411 1 783 784 865 866
4412 1 783 784 865 870
4413 1 787 784 865 866
4414 1 787 784 865 870
4415 1 783 784 787 786
4416 1 783 784 787 788
4417 1 865 784 787 786
4418 1 865 784 787 788
4419 1 704 785 790 789
4420 1 704 785 790 791
4421 1 786 785 790 789
4422 1 786 785 790 791
4423 1 704 785 786 781
4424 1 704 785 786 787
4425 1 790 785 786 781
4426 1 790 785 786 787
4427 1 781 786 787 784
4428 1 781 786 787 788
4429 1 785 786 787 784
4430 1 785 786 787 788
4431 1 784 787 788 869
4432 1 784 787 788 791
4433 1 786 787 788 869
4434 1 786 787 788 791
4435 1 787 788 869 874
4436 1 787 788 869 870
4437 1 791 788 869 874
4438 1 791 788 869 870
4439 1 787 788 791 790
4440 1 787 788 791 792
4441 1 869 788 791 790
4442 1 869 788 791 792
4443 1 708 789 794 793
4444 1 708 789 794 795
4445 1 790 789 794 793
4446 1 790 789 794 795
4447 1 708 789 790 785
4448 1 708 789 790 791
4449 1 794 789 790 785
4450 1 794 789 790 791
4451 1 785 790 791 788
4452 1 785 790 791 792
4453 1 789 790 791 788
4454 1 789 790 791 792
4455 1 788 791 792 873
4456 1 788 791 792 795
4457 1 790 791 792 873
4458 1 790 791 792 795
4459 1 791 792 873 878
4460 1 791 792 873 874
4461 1 795 792 873 878
4462 1 795 792 873 874
4463 1 791 792 795 794
4464 1 791 792 795 796
4465 1 873 792 795 794
4466 1 873 792 795 796
4467 1 712 793 798 797
4468 1 712 793 798 799
4469 1 794 793 798 797
4470 1 794 793 798 799
4471 1 712 793 794 789
4472 1 712 793 794 795
4473 1 798 793 794 789
4474 1 798 793 794 795
4475 1 789 794 795 792
4476 1 789 794 795 796
4477 1 793 794 795 792
4478 1 793 794 795 796
4479 1 792 795 796 877
4480 1 792 795 796 799
4481 1 794 795 796 877
4482 1 794 795 796 799
4483 1 795 796 877 882
4484 1 795 796 877 878
4485 1 799 796 877 882
4486 1 799 796 877 878
4487 1 795 796 799 798
4488 1 795 796 799 800
4489 1 877 796 799 798
4490 1 877 796 799 800
4491 1 716 797 798 793
4492 1 716 797 798 799
4493 1 802 797 798 793
4494 1 802 797 798 799
4495 1 716 797 802 801
4496 1 716 797 802 803
4497 1 798 797 802 801
4498 1 798 797 802 803
4499 1 793 798 799 796
4500 1 793 798 799 800
4501 1 797 798 799 796
4502 1 797 798 799 800
4503 1 796 799 800 881
4504 1 796 799 800 803
4505 1 798 799 800 881
4506 1 798 799 800 803
4507 1 799 800 881 882
4508 1 799 800 881 886
4509 1 803 800 881 882
4510 1 803 800 881 886
4511 1 799 800 803 802
4512 1 799 800 803 804
4513 1 881 800 803 802
4514 1 881 800 803 804
4515 1 720 801 802 797
4516 1 720 801 802 803
4517 1 806 801 802 797
4518 1 806 801 802 803
4519 1 720 801 806 805
4520 1 720 801 806 807
4521 1 802 801 806 805
4522 1 802 801 806 807
4523 1 797 802 803 800
4524 1 797 802 803 804
4525 1 801 802 803 800
4526 1 801 802 803 804
4527 1 800 803 804 885
4528 1 800 803 804 807
4529 1 802 803 804 885
4530 1 802 803 804 807
4531 1 803 804 885 886
4532 1 803 804 885 890
4533 1 807 804 885 886
4534 1 807 804 885 890
4535 1 803 804 807 806
4536 1 803 804 807 808
4537 1 885 804 807 806
4538 1 885 804 807 808
4539 1 724 805 810 809
4540 1 724 805 810 811
4541 1 806 805 810 809
4542 1 806 805 810 811
4543 1 724 805 806 801
4544 1 724 805 806 807
4545 1 810 805 806 801
4546 1 810 805 806 807
4547 1 801 806 807 804
4548 1 801 806 807 808
4549 1 805 806 807 804
4550 1 805 806 807 808
4551 1 804 807 808 811
4552 1 804 807 808 889
4553 1 806 807 808 811
4554 1 806 807 808 889
4555 1 807 808 811 810
4556 1 807 808 811 812
4557 1 889 808 811 810
4558 1 889 808 811 812
4559 1 807 808 889 890
4560 1 807 808 889 894
4561 1 811 808 889 890
4562 1 811 808 889 894
4563 1 728 809 814 813
4564 1 728 809 814 815
4565 1 810 809 814 813
4566 1 810 809 814 815
4567 1 728 809 810 805
4568 1 728 809 810 811
4569 1 814 809 810 805
4570 1 814 809 810 811
4571 1 805 810 811 808
4572 1 805 810 811 812
4573 1 809 810 811 808
4574 1 809 810 811 812
4575 1 808 811 812 815
4576 1 808 811 812 893
4577 1 810 811 812 815
4578 1 810 811 812 893
4579 1 811 812 815 814
4580 1 811 812 815 816
4581 1 893 812 815 814
4582 1 893 812 815 816
4583 1 811 812 893 894
4584 1 811 812 893 898
4585 1 815 812 893 894
4586 1 815 812 893 898
4587 1 732 813 818 817
4588 1 732 813 818 819
4589 1 814 813 818 817
4590 1 814 813 818 819
4591 1 732 813 814 809
4592 1 732 813 814 815
4593 1 818 813 814 809
4594 1 818 813 814 815
4595 1 809 814 815 812
4596 1 809 814 815 816
4597 1 813 814 815 812
4598 1 813 814 815 816
4599 1 812 815 816 897
4600 1 812 815 816 819
4601 1 814 815 816 897
4602 1 814 815 816 819
4603 1 815 816 897 898
4604 1 815 816 897 902
4605 1 819 816 897 898
4606 1 819 816 897 902
4607 1 815 816 819 818
4608 1 815 816 819 820
4609 1 897 816 819 818
4610 1 897 816 819 820
4611 1 736 817 818 813
4612 1 736 817 818 819
4613 1 822 817 818 813
4614 1 822 817 818 819
4615 1 736 817 822 821
4616 1 736 817 822 823
4617 1 818 817 822 821
4618 1 818 817 822 823
4619 1 813 818 819 816
4620 1 813 818 819 820
4621 1 817 818 819 816
4622 1 817 818 819 820
4623 1 816 819 820 901
4624 1 816 819 820 823
4625 1 818 819 820 901
4626 1 818 819 820 823
4627 1 819 820 901 902
4628 1 819 820 901 906
4629 1 823 820 901 902
4630 1 823 820 901 906
4631 1 819 820 823 822
4632 1 819 820 823 824
4633 1 901 820 823 822
4634 1 901 820 823 824
4635 1 740 821 822 817
4636 1 740 821 822 823
4637 1 826 821 822 817
4638 1 826 821 822 823
4639 1 740 821 826 825
4640 1 740 821 826 827
4641 1 822 821 826 825
4642 1 822 821 826 827
4643 1 817 822 823 820
4644 1 817 822 823 824
4645 1 821 822 823 820
4646 1 821 822 823 824
4647 1 820 823 824 905
4648 1 820 823 824 827
4649 1 822 823 824 905
4650 1 822 823 824 827
4651 1 823 824 905 906
4652 1 823 824 905 910
4653 1 827 824 905 906
4654 1 827 824 905 910
4655 1 823 824 827 826
4656 1 823 824 827 828
4657 1 905 824 827 826
4658 1 905 824 827 828
4659 1 744 825 830 829
4660 1 744 825 830 831
4661 1 826 825 830 829
4662 1 826 825 830 831
4663 1 744 825 826 821
4664 1 744 825 826 827
4665 1 830 825 826 821
4666 1 830 825 826 827
4667 1 821 826 827 824
4668 1 821 826 827 828
4669 1 825 826 827 824
4670 1 825 826 827 828
4671 1 824 827 828 831
4672 1 824 827 828 909
4673 1 826 827 828 831
4674 1 826 827 828 909
4675 1 827 828 831 830
4676 1 827 828 831 832
4677 1 909 828 831 830
4678 1 909 828 831 832
4679 1 827 828 909 914
4680 1 827 828 909 910
4681 1 831 828 909 914
4682 1 831 828 909 910
4683 1 748 829 834 833
4684 1 748 829 834 835
4685 1 830 829 834 833
4686 1 830 829 834 835
4687 1 748 829 830 825
4688 1 748 829 830 831
4689 1 834 829 830 825
4690 1 834 829 830 831
4691 1 825 830 831 828
4692 1 825 830 831 832
4693 1 829 830 831 828
4694 1 829 830 831 832
4695 1 828 831 832 835
4696 1 828 831 832 913
4697 1 830 831 832 835
4698 1 830 831 832 913
4699 1 831 832 835 834
4700 1 831 832 835 836
4701 1 913 832 835 834
4702 1 913 832 835 836
4703 1 831 832 913 918
4704 1 831 832 913 914
4705 1 835 832 913 918
4706 1 835 832 913 914
4707 1 752 833 838 837
4708 1 752 833 838 839
4709 1 834 833 838 837
4710 1 834 833 838 839
4711 1 752 833 834 829
4712 1 752 833 834 835
4713 1 838 833 834 829
4714 1 838 833 834 835
4715 1 829 834 835 832
4716 1 829 834 835 836
4717 1 833 834 835 832
4718 1 833 834 835 836
4719 1 832 835 836 917
4720 1 832 835 836 839
4721 1 834 835 836 917
4722 1 834 835 836 839
4723 1 835 836 917 922
4724 1 835 836 917 918
4725 1 839 836 917 922
4726 1 839 836 917 918
4727 1 835 836 839 838
4728 1 835 836 839 840
4729 1 917 836 839 838
4730 1 917 836 839 840
4731 1 756 837 838 833
4732 1 756 837 838 839
4733 1 833 838 839 836
4734 1 833 838 839 840
4735 1 837 838 839 836
4736 1 837 838 839 840
4737 1 836 839 840 921
4738 1 838 839 840 921
4739 1 839 840 921 922
4740 1 760 841 842 843
4741 1 846 841 842 843
4742 1 760 841 846 845
4743 1 760 841 846 847
4744 1 842 841 846 845
4745 1 842 841 846 847
4746 1 841 842 843 844
4747 1 842 843 844 925
4748 1 842 843 844 847
4749 1 843 844 925 926
4750 1 843 844 925 930
4751 1 847 844 925 926
4752 1 847 844 925 930
4753 1 843 844 847 846
4754 1 843 844 847 848
4755 1 925 844 847 846
4756 1 925 844 847 848
4757 1 764 845 846 841
4758 1 764 845 846 847
4759 1 850 845 846 841
4760 1 850 845 846 847
4761 1 764 845 850 849
4762 1 764 845 850 851
4763 1 846 845 850 849
4764 1 846 845 850 851
4765 1 841 846 847 844
4766 1 841 846 847 848
4767 1 845 846 847 844
4768 1 845 846 847 848
4769 1 844 847 848 929
4770 1 844 847 848 851
4771 1 846 847 848 929
4772 1 846 847 848 851
4773 1 847 848 929 930
4774 1 847 848 929 934
4775 1 851 848 929 930
4776 1 851 848 929 934
4777 1 847 848 851 850
4778 1 847 848 851 852
4779 1 929 848 851 850
4780 1 929 848 851 852
4781 1 768 849 854 853
4782 1 768 849 854 855
4783 1 850 849 854 853
4784 1 850 849 854 855
4785 1 768 849 850 845
4786 1 768 849 850 851
4787 1 854 849 850 845
4788 1 854 849 850 851
4789 1 845 850 851 848
4790 1 845 850 851 852
4791 1 849 850 851 848
4792 1 849 850 851 852
4793 1 848 851 852 855
4794 1 848 851 852 933
4795 1 850 851 852 855
4796 1 850 851 852 933
4797 1 851 852 855 854
4798 1 851 852 855 856
4799 1 933 852 855 854
4800 1 933 852 855 856
4801 1 851 852 933 938
4802 1 851 852 933 934
4803 1 855 852 933 938
4804 1 855 852 933 934
4805 1 772 853 858 857
4806 1 772 853 858 859
4807 1 854 853 858 857
4808 1 854 853 858 859
4809 1 772 853 854 849
4810 1 772 853 854 855
4811 1 858 853 854 849
4812 1 858 853 854 855
4813 1 849 854 855 852
4814 1 849 854 855 856
4815 1 853 854 855 852
4816 1 853 854 855 856
4817 1 852 855 856 859
4818 1 852 855 856 937
4819 1 854 855 856 859
4820 1 854 855 856 937
4821 1 855 856 859 858
4822 1 855 856 859 860
4823 1 937 856 859 858
4824 1 937 856 859 860
4825 1 855 856 937 942
4826 1 855 856 937 938
4827 1 859 856 937 942
4828 1 859 856 937 938
4829 1 776 857 862 861
4830 1 776 857 862 863
4831 1 858 857 862 861
4832 1 858 857 862 863
4833 1 776 857 858 853
4834 1 776 857 858 859
4835 1 862 857 858 853
4836 1 862 857 858 859
4837 1 853 858 859 856
4838 1 853 858 859 860
4839 1 857 858 859 856
4840 1 857 858 859 860
4841 1 856 859 860 941
4842 1 856 859 860 863
4843 1 858 859 860 941
4844 1 858 859 860 863
4845 1 859 860 941 946
4846 1 859 860 941 942
4847 1 863 860 941 946
4848 1 863 860 941 942
4849 1 859 860 863 862
4850 1 859 860 863 864
4851 1 941 860 863 862
4852 1 941 860 863 864
4853 1 780 861 862 857
4854 1 780 861 862 863
4855 1 866 861 862 857
4856 1 866 861 862 863
4857 1 780 861 866 865
4858 1 780 861 866 867
4859 1 862 861 866 865
4860 1 862 861 866 867
4861 1 857 862 863 860
4862 1 857 862 863 864
4863 1 861 862 863 860
4864 1 861 862 863 864
4865 1 860 863 864 945
4866 1 860 863 864 867
4867 1 862 863 864 945
4868 1 862 863 864 867
4869 1 863 864 945 946
4870 1 863 864 945 950
4871 1 867 864 945 946
4872 1 867 864 945 950
4873 1 863 864 867 866
4874 1 863 864 867 868
4875 1 945 864 867 866
4876 1 945 864 867 868
4877 1 784 865 866 861
4878 1 784 865 866 867
4879 1 870 865 866 861
4880 1 870 865 866 867
4881 1 784 865 870 869
4882 1 784 865 870 871
4883 1 866 865 870 869
4884 1 866 865 870 871
4885 1 861 866 867 864
4886 1 861 866 867 868
4887 1 865 866 867 864
4888 1 865 866 867 868
4889 1 864 867 868 949
4890 1 864 867 868 871
4891 1 866 867 868 949
4892 1 866 867 868 871
4893 1 867 868 949 950
4894 1 867 868 949 954
4895 1 871 868 949 950
4896 1 871 868 949 954
4897 1 867 868 871 870
4898 1 867 868 871 872
4899 1 949 868 871 870
4900 1 949 868 871 872
4901 1 788 869 874 873
4902 1 788 869 874 875
4903 1 870 869 874 873
4904 1 870 869 874 875
4905 1 788 869 870 865
4906 1 788 869 870 871
4907 1 874 869 870 865
4908 1 874 869 870 871
4909 1 865 870 871 868
4910 1 865 870 871 872
4911 1 869 870 871 868
4912 1 869 870 871 872
4913 1 868 871 872 875
4914 1 868 871 872 953
4915 1 870 871 872 875
4916 1 870 871 872 953
4917 1 871 872 875 874
4918 1 871 872 875 876
4919 1 953 872 875 874
4920 1 953 872 875 876
4921 1 871 872 953 958
4922 1 871 872 953 954
4923 1 875 872 953 958
4924 1 875 872 953 954
4925 1 792 873 878 877
4926 1 792 873 878 879
4927 1 874 873 878 877
4928 1 874 873 878 879
4929 1 792 873 874 869
4930 1 792 873 874 875
4931 1 878 873 874 869
4932 1 878 873 874 875
4933 1 869 874 875 872
4934 1 869 874 875 876
4935 1 873 874 875 872
4936 1 873 874 875 876
4937 1 872 875 876 879
4938 1 872 875 876 957
4939 1 874 875 876 879
4940 1 874 875 876 957
4941 1 875 876 879 878
4942 1 875 876 879 880
4943 1 957 876 879 878
4944 1 957 876 879 880
4945 1 875 876 957 962
4946 1 875 876 957 958
4947 1 879 876 957 962
4948 1 879 876 957 958
4949 1 796 877 882 881
4950 1 796 877 882 883
4951 1 878 877 882 881
4952 1 878 877 882 883
4953 1 796 877 878 873
4954 1 796 877 878 879
4955 1 882 877 878 873
4956 1 882 877 878 879
4957 1 873 878 879 876
4958 1 873 878 879 880
4959 1 877 878 879 876
4960 1 877 878 879 880
4961 1 876 879 880 961
4962 1 876 879 880 883
4963 1 878 879 880 961
4964 1 878 879 880 883
4965 1 879 880 961 966
4966 1 879 880 961 962
4967 1 883 880 961 966
4968 1 883 880 961 962
4969 1 879 880 883 882
4970 1 879 880 883 884
4971 1 961 880 883 882
4972 1 961 880 883 884
4973 1 800 881 882 877
4974 1 800 881 882 883
4975 1 886 881 882 877
4976 1 886 881 882 883
4977 1 800 881 886 885
4978 1 800 881 886 887
4979 1 882 881 886 885
4980 1 882 881 886 887
4981 1 877 882 883 880
4982 1 877 882 883 884
4983 1 881 882 883 880
4984 1 881 882 883 884
4985 1 880 883 884 965
4986 1 880 883 884 887
4987 1 882 883 884 965
4988 1 882 883 884 887
4989 1 883 884 965 966
4990 1 883 884 965 970
4991 1 887 884 965 966
4992 1 887 884 965 970
4993 1 883 884 887 886
4994 1 883 884 887 888
4995 1 965 884 887 886
4996 1 965 884 887 888
4997 1 804 885 886 881
4998 1 804 885 886 887
4999 1 890 885 886 881
5000 1 890 885 886 887
5001 1 804 885 890 889
5002 1 804 885 890 891
5003 1 886 885 890 889
5004 1 886 885 890 891
5005 1 881 886 887 884
5006 1 881 886 887 888
5007 1 885 886 887 884
5008 1 885 886 887 888
5009 1 884 887 888 969
5010 1 884 887 888 891
5011 1 886 887 888 969
5012 1 886 887 888 891
5013 1 887 888 969 970
5014 1 887 888 969 974
5015 1 891 888 969 970
5016 1 891 888 969 974
5017 1 887 888 891 890
5018 1 887 888 891 892
5019 1 969 888 891 890
5020 1 969 888 891 892
5021 1 808 889 890 885
5022 1 808 889 890 891
5023 1 894 889 890 885
5024 1 894 889 890 891
5025 1 808 889 894 893
5026 1 808 889 894 895
5027 1 890 889 894 893
5028 1 890 889 894 895
5029 1 885 890 891 888
5030 1 885 890 891 892
5031 1 889 890 891 888
5032 1 889 890 891 892
5033 1 888 891 892 895
5034 1 888 891 892 973
5035 1 890 891 892 895
5036 1 890 891 892 973
5037 1 891 892 895 894
5038 1 891 892 895 896
5039 1 973 892 895 894
5040 1 973 892 895 896
5041 1 891 892 973 978
5042 1 891 892 973 974
5043 1 895 892 973 978
5044 1 895 892 973 974
5045 1 812 893 894 889
5046 1 812 893 894 895
5047 1 898 893 894 889
5048 1 898 893 894 895
5049 1 812 893 898 897
5050 1 812 893 898 899
5051 1 894 893 898 897
5052 1 894 893 898 899
5053 1 889 894 895 892
5054 1 889 894 895 896
5055 1 893 894 895 892
5056 1 893 894 895 896
5057 1 892 895 896 899
5058 1 892 895 896 977
5059 1 894 895 896 899
5060 1 894 895 896 977
5061 1 895 896 899 898
5062 1 895 896 899 900
5063 1 977 896 899 898
5064 1 977 896 899 900
5065 1 895 896 977 982
5066 1 895 896 977 978
5067 1 899 896 977 982
5068 1 899 896 977 978
5069 1 816 897 898 893
5070 1 816 897 898 899
5071 1 902 897 898 893
5072 1 902 897 898 899
5073 1 816 897 902 901
5074 1 816 897 902 903
5075 1 898 897 902 901
5076 1 898 897 902 903
5077 1 893 898 899 896
5078 1 893 898 899 900
5079 1 897 898 899 896
5080 1 897 898 899 900
5081 1 896 899 900 981
5082 1 896 899 900 903
5083 1 898 899 900 981
5084 1 898 899 900 903
5085 1 899 900 981 986
5086 1 899 900 981 982
5087 1 903 900 981 986
5088 1 903 900 981 982
5089 1 899 900 903 902
5090 1 899 900 903 904
5091 1 981 900 903 902
5092 1 981 900 903 904
5093 1 820 901 902 897
5094 1 820 901 902 903
5095 1 906 901 902 897
5096 1 906 901 902 903
5097 1 820 901 906 905
5098 1 820 901 906 907
5099 1 902 901 906 905
5100 1 902 901 906 907
5101 1 897 902 903 900
5102 1 897 902 903 904
5103 1 901 902 903 900
5104 1 901 902 903 904
5105 1 900 903 904 985
5106 1 900 903 904 907
5107 1 902 903 904 985
5108 1 902 903 904 907
5109 1 903 904 985 986
5110 1 903 904 985 990
5111 1 907 904 985 986
5112 1 907 904 985 990
5113 1 903 904 907 906
5114 1 903 904 907 908
5115 1 985 904 907 906
5116 1 985 904 907 908
5117 1 824 905 906 901
5118 1 824 905 906 907
5119 1 910 905 906 901
5120 1 910 905 906 907
5121 1 824 905 910 909
5122 1 824 905 910 911
5123 1 906 905 910 909
5124 1 906 905 910 911
5125 1 901 906 907 904
5126 1 901 906 907 908
5127 1 905 906 907 904
5128 1 905 906 907 908
5129 1 904 907 908 989
5130 1 904 907 908 911
5131 1 906 907 908 989
5132 1 906 907 908 911
5133 1 907 908 989 990
5134 1 907 908 989 994
5135 1 911 908 989 990
5136 1 911 908 989 994
5137 1 907 908 911 910
5138 1 907 908 911 912
5139 1 989 908 911 910
5140 1 989 908 911 912
5141 1 828 909 914 913
5142 1 828 909 914 915
5143 1 910 909 914 913
5144 1 910 909 914 915
5145 1 828 909 910 905
5146 1 828 909 910 911
5147 1 914 909 910 905
5148 1 914 909 910 911
5149 1 905 910 911 908
5150 1 905 910 911 912
5151 1 909 910 911 908
5152 1 909 910 911 912
5153 1 908 911 912 993
5154 1 908 911 912 915
5155 1 910 911 912 993
5156 1 910 911 912 915
5157 1 911 912 993 998
5158 1 911 912 993 994
5159 1 915 912 993 998
5160 1 915 912 993 994
5161 1 911 912 915 914
5162 1 911 912 915 916
5163 1 993 912 915 914
5164 1 993 912 915 916
5165 1 832 913 918 917
5166 1 832 913 918 919
5167 1 914 913 918 917
5168 1 914 913 918 919
5169 1 832 913 914 909
5170 1 832 913 914 915
5171 1 918 913 914 909
5172 1 918 913 914 915
5173 1 909 914 915 912
5174 1 909 914 915 916
5175 1 913 914 915 912
5176 1 913 914 915 916
5177 1 912 915 916 997
5178 1 912 915 916 919
5179 1 914 915 916 997
5180 1 914 915 916 919
5181 1 915 916 997 1002
5182 1 915 916 997 998
5183 1 919 916 997 1002
5184 1 919 916 997 998
5185 1 915 916 919 918
5186 1 915 916 919 920
5187 1 997 916 919 918
5188 1 997 916 919 920
5189 1 836 917 922 921
5190 1 836 917 922 923
5191 1 918 917 922 921
5192 1 918 917 922 923
5193 1 836 917 918 913
5194 1 836 917 918 919
5195 1 922 917 918 913
5196 1 922 917 918 919
5197 1 913 918 919 916
5198 1 913 918 919 920
5199 1 917 918 919 916
5200 1 917 918 919 920
5201 1 916 919 920 1001
5202 1 916 919 920 923
5203 1 918 919 920 1001
5204 1 918 919 920 923
5205 1 919 920 1001 1006
5206 1 919 920 1001 1002
5207 1 923 920 1001 1006
5208 1 923 920 1001 1002
5209 1 919 920 923 922
5210 1 919 920 923 924
5211 1 1001 920 923 922
5212 1 1001 920 923 924
5213 1 840 921 922 917
5214 1 840 921 922 923
5215 1 917 922 923 920
5216 1 917 922 923 924
5217 1 921 922 923 920
5218 1 921 922 923 924
5219 1 920 923 924 1005
5220 1 922 923 924 1005
5221 1 923 924 1005 1006
5222 1 844 925 926 927
5223 1 930 925 926 927
5224 1 844 925 930 929
5225 1 844 925 930 931
5226 1 926 925 930 929
5227 1 926 925 930 931
5228 1 925 926 927 928
5229 1 926 927 928 931
5230 1 927 928 931 930
5231 1 927 928 931 932
5232 1 848 929 930 925
5233 1 848 929 930 931
5234 1 934 929 930 925
5235 1 934 929 930 931
5236 1 848 929 934 933
5237 1 848 929 934 935
5238 1 930 929 934 933
5239 1 930 929 934 935
5240 1 925 930 931 928
5241 1 925 930 931 932
5242 1 929 930 931 928
5243 1 929 930 931 932
5244 1 928 931 932 935
5245 1 930 931 932 935
5246 1 931 932 935 934
5247 1 931 932 935 936
5248 1 852 933 938 937
5249 1 852 933 938 939
5250 1 934 933 938 937
5251 1 934 933 938 939
5252 1 852 933 934 929
5253 1 852 933 934 935
5254 1 938 933 934 929
5255 1 938 933 934 935
5256 1 929 934 935 932
5257 1 929 934 935 936
5258 1 933 934 935 932
5259 1 933 934 935 936
5260 1 932 935 936 939
5261 1 934 935 936 939
5262 1 935 936 939 938
5263 1 935 936 939 940
5264 1 856 937 942 941
5265 1 856 937 942 943
5266 1 938 937 942 941
5267 1 938 937 942 943
5268 1 856 937 938 933
5269 1 856 937 938 939
5270 1 942 937 938 933
5271 1 942 937 938 939
5272 1 933 938 939 936
5273 1 933 938 939 940
5274 1 937 938 939 936
5275 1 937 938 939 940
5276 1 936 939 940 943
5277 1 938 939 940 943
5278 1 939 940 943 942
5279 1 939 940 943 944
5280 1 860 941 946 945
5281 1 860 941 946 947
5282 1 942 941 946 945
5283 1 942 941 946 947
5284 1 860 941 942 937
5285 1 860 941 942 943
5286 1 946 941 942 937
5287 1 946 941 942 943
5288 1 937 942 943 940
5289 1 937 942 943 944
5290 1 941 942 943 940
5291 1 941 942 943 944
5292 1 940 943 944 947
5293 1 942 943 944 947
5294 1 943 944 947 946
5295 1 943 944 947 948
5296 1 864 945 946 941
5297 1 864 945 946 947
5298 1 950 945 946 941
5299 1 950 945 946 947
5300 1 864 945 950 949
5301 1 864 945 950 951
5302 1 946 945 950 949
5303 1 946 945 950 951
5304 1 941 946 947 944
5305 1 941 946 947 948
5306 1 945 946 947 944
5307 1 945 946 947 948
5308 1 944 947 948 951
5309 1 946 947 948 951
5310 1 947 948 951 950
5311 1 947 948 951 952
5312 1 868 949 950 945
5313 1 868 949 950 951
5314 1 954 949 950 945
5315 1 954 949 950 951
5316 1 868 949 954 953
5317 1 868 949 954 955
5318 1 950 949 954 953
5319 1 950 949 954 955
5320 1 945 950 951 948
5321 1 945 950 951 952
5322 1 949 950 951 948
5323 1 949 950 951 952
5324 1 948 951 952 955
5325 1 950 951 952 955
5326 1 951 952 955 954
5327 1 951 952 955 956
5328 1 872 953 958 957
5329 1 872 953 958 959
5330 1 954 953 958 957
5331 1 954 953 958 959
5332 1 872 953 954 949
5333 1 872 953 954 955
5334 1 958 953 954 949
5335 1 958 953 954 955
5336 1 949 954 955 952
5337 1 949 954 955 956
5338 1 953 954 955 952
5339 1 953 954 955 956
5340 1 952 955 956 959
5341 1 954 955 956 959
5342 1 955 956 959 958
5343 1 955 956 959 960
5344 1 876 957 962 961
5345 1 876 957 962 963
5346 1 958 957 962 961
5347 1 958 957 962 963
5348 1 876 957 958 953
5349 1 876 957 958 959
5350 1 962 957 958 953
5351 1 962 957 958 959
5352 1 953 958 959 956
5353 1 953 958 959 960
5354 1 957 958 959 956
5355 1 957 958 959 960
5356 1 956 959 960 963
5357 1 958 959 960 963
5358 1 959 960 963 962
5359 1 959 960 963 964
5360 1 880 961 966 965
5361 1 880 961 966 967
5362 1 962 961 966 965
5363 1 962 961 966 967
5364 1 880 961 962 957
5365 1 880 961 962 963
5366 1 966 961 962 957
5367 1 966 961 962 963
5368 1 957 962 963 960
5369 1 957 962 963 964
5370 1 961 962 963 960
5371 1 961 962 963 964
5372 1 960 963 964 967
5373 1 962 963 964 967
5374 1 963 964 967 966
5375 1 963 964 967 968
5376 1 884 965 966 961
5377 1 884 965 966 967
5378 1 970 965 966 961
5379 1 970 965 966 967
5380 1 884 965 970 969
5381 1 884 965 970 971
5382 1 966 965 970 969
5383 1 966 965 970 971
5384 1 961 966 967 964
5385 1 961 966 967 968
5386 1 965 966 967 964
5387 1 965 966 967 968
5388 1 964 967 968 971
5389 1 966 967 968 971
5390 1 967 968 971 970
5391 1 967 968 971 972
5392 1 888 969 970 965
5393 1 888 969 970 971
5394 1 974 969 970 965
5395 1 974 969 970 971
5396 1 888 969 974 973
5397 1 888 969 974 975
5398 1 970 969 974 973
5399 1 970 969 974 975
5400 1 965 970 971 968
5401 1 965 970 971 972
5402 1 969 970 971 968
5403 1 969 970 971 972
5404 1 968 971 972 975
5405 1 970 971 972 975
5406 1 971 972 975 974
5407 1 971 972 975 976
5408 1 892 973 978 977
5409 1 892 973 978 979
5410 1 974 973 978 977
5411 1 974 973 978 979
5412 1 892 973 974 969
5413 1 892 973 974 975
5414 1 978 973 974 969
5415 1 978 973 974 975
5416 1 969 974 975 972
5417 1 969 974 975 976
5418 1 973 974 975 972
5419 1 973 974 975 976
5420 1 972 975 976 979
5421 1 974 975 976 979
5422 1 975 976 979 978
5423 1 975 976 979 980
5424 1 896 977 982 981
5425 1 896 977 982 983
5426 1 978 977 982 981
5427 1 978 977 982 983
5428 1 896 977 978 973
5429 1 896 977 978 979
5430 1 982 977 978 973
5431 1 982 977 978 979
5432 1 973 978 979 976
5433 1 973 978 979 980
5434 1 977 978 979 976
5435 1 977 978 979 980
5436 1 976 979 980 983
5437 1 978 979 980 983
5438 1 979 980 983 982
5439 1 979 980 983 984
5440 1 900 981 986 985
5441 1 900 981 986 987
5442 1 982 981 986 985
5443 1 982 981 986 987
5444 1 900 981 982 977
5445 1 900 981 982 983
5446 1 986 981 982 977
5447 1 986 981 982 983
5448 1 977 982 983 980
5449 1 977 982 983 984
5450 1 981 982 983 980
5451 1 981 982 983 984
5452 1 980 983 984 987
5453 1 982 983 984 987
5454 1 983 984 987 986
5455 1 983 984 987 988
5456 1 904 985 986 981
5457 1 904 985 986 987
5458 1 990 985 986 981
5459 1 990 985 986 987
5460 1 904 985 990 989
5461 1 904 985 990 991
5462 1 986 985 990 989
5463 1 986 985 990 991
5464 1 981 986 987 984
5465 1 981 986 987 988
5466 1 985 986 987 984
5467 1 985 986 987 988
5468 1 984 987 988 991
5469 1 986 987 988 991
5470 1 987 988 991 990
5471 1 987 988 991 992
5472 1 908 989 990 985
5473 1 908 989 990 991
5474 1 994 989 990 985
5475 1 994 989 990 991
5476 1 908 989 994 993
5477 1 908 989 994 995
5478 1 990 989 994 993
5479 1 990 989 994 995
5480 1 985 990 991 988
5481 1 985 990 991 992
5482 1 989 990 991 988
5483 1 989 990 991 992
5484 1 988 991 992 995
5485 1 990 991 992 995
5486 1 991 992 995 994
5487 1 991 992 995 996
5488 1 912 993 998 997
5489 1 912 993 998 999
5490 1 994 993 998 997
5491 1 994 993 998 999
5492 1 912 993 994 989
5493 1 912 993 994 995
5494 1 998 993 994 989
5495 1 998 993 994 995
5496 1 989 994 995 992
5497 1 989 994 995 996
5498 1 993 994 995 992
5499 1 993 994 995 996
5500 1 992 995 996 999
5501 1 994 995 996 999
5502 1 995 996 999 998
5503 1 995 996 999 1000
5504 1 916 997 1002 1001
5505 1 916 997 1002 1003
5506 1 998 997 1002 1001
5507 1 998 997 1002 1003
5508 1 916 997 998 993
5509 1 916 997 998 999
5510 1 1002 997 998 993
5511 1 1002 997 998 999
5512 1 993 998 999 996
5513 1 993 998 999 1000
5514 1 997 998 999 996
5515 1 997 998 999 1000
5516 1 996 999 1000 1003
5517 1 998 999 1000 1003
5518 1 999 1000 1003 1002
5519 1 999 1000 1003 1004
5520 1 920 1001 1006 1005
5521 1 920 1001 1006 1007
5522 1 1002 1001 1006 1005
5523 1 1002 1001 1006 1007
5524 1 920 1001 1002 997
5525 1 920 1001 1002 1003
5526 1 1006 1001 1002 997
5527 1 1006 1001 1002 1003
5528 1 997 1002 1003 1000
5529 1 997 1002 1003 1004
5530 1 1001 1002 1003 1000
5531 1 1001 1002 1003 1004
5532 1 1000 1003 1004 1007
5533 1 1002 1003 1004 1007
5534 1 1003 1004 1007 1006
5535 1 1003 1004 1007 1008
5536 1 924 1005 1006 1001
5537 1 924 1005 1006 1007
5538 1 1001 1006 1007 1004
5539 1 1001 1006 1007 1008
5540 1 1005 1006 1007 1004
5541 1 1005 1006 1007 1008
